%%MatrixMarket matrix coordinate integer general
204 425 1428
1 1 1
69 1 1
137 1 1
2 2 1
70 2 1
138 2 1
3 3 1
71 3 1
139 3 1
4 4 1
72 4 1
140 4 1
5 5 1
73 5 1
141 5 1
6 6 1
74 6 1
142 6 1
7 7 1
75 7 1
143 7 1
8 8 1
76 8 1
144 8 1
9 9 1
77 9 1
145 9 1
10 10 1
78 10 1
146 10 1
11 11 1
79 11 1
147 11 1
12 12 1
80 12 1
148 12 1
13 13 1
81 13 1
149 13 1
14 14 1
82 14 1
150 14 1
15 15 1
83 15 1
151 15 1
16 16 1
84 16 1
152 16 1
17 17 1
85 17 1
153 17 1
18 18 1
86 18 1
154 18 1
19 19 1
87 19 1
155 19 1
20 20 1
88 20 1
156 20 1
21 21 1
89 21 1
157 21 1
22 22 1
90 22 1
158 22 1
23 23 1
91 23 1
159 23 1
24 24 1
92 24 1
160 24 1
25 25 1
93 25 1
161 25 1
26 26 1
94 26 1
162 26 1
27 27 1
95 27 1
163 27 1
28 28 1
96 28 1
164 28 1
29 29 1
97 29 1
165 29 1
30 30 1
98 30 1
166 30 1
31 31 1
99 31 1
167 31 1
32 32 1
100 32 1
168 32 1
33 33 1
101 33 1
169 33 1
34 34 1
102 34 1
170 34 1
35 35 1
103 35 1
171 35 1
36 36 1
104 36 1
172 36 1
37 37 1
105 37 1
173 37 1
38 38 1
106 38 1
174 38 1
39 39 1
107 39 1
175 39 1
40 40 1
108 40 1
176 40 1
41 41 1
109 41 1
177 41 1
42 42 1
110 42 1
178 42 1
43 43 1
111 43 1
179 43 1
44 44 1
112 44 1
180 44 1
45 45 1
113 45 1
181 45 1
46 46 1
114 46 1
182 46 1
47 47 1
115 47 1
183 47 1
48 48 1
116 48 1
184 48 1
49 49 1
117 49 1
185 49 1
50 50 1
118 50 1
186 50 1
51 51 1
119 51 1
187 51 1
52 52 1
120 52 1
188 52 1
53 53 1
121 53 1
189 53 1
54 54 1
122 54 1
190 54 1
55 55 1
123 55 1
191 55 1
56 56 1
124 56 1
192 56 1
57 57 1
125 57 1
193 57 1
58 58 1
126 58 1
194 58 1
59 59 1
127 59 1
195 59 1
60 60 1
128 60 1
196 60 1
61 61 1
129 61 1
197 61 1
62 62 1
130 62 1
198 62 1
63 63 1
131 63 1
199 63 1
64 64 1
132 64 1
200 64 1
65 65 1
133 65 1
201 65 1
66 66 1
134 66 1
202 66 1
67 67 1
135 67 1
203 67 1
68 68 1
136 68 1
204 68 1
1 69 1
70 69 1
145 69 1
2 70 1
71 70 1
146 70 1
3 71 1
72 71 1
147 71 1
4 72 1
73 72 1
148 72 1
5 73 1
74 73 1
149 73 1
6 74 1
75 74 1
150 74 1
7 75 1
76 75 1
151 75 1
8 76 1
77 76 1
152 76 1
9 77 1
78 77 1
153 77 1
10 78 1
79 78 1
137 78 1
11 79 1
80 79 1
138 79 1
12 80 1
81 80 1
139 80 1
13 81 1
82 81 1
140 81 1
14 82 1
83 82 1
141 82 1
15 83 1
84 83 1
142 83 1
16 84 1
85 84 1
143 84 1
17 85 1
69 85 1
144 85 1
18 86 1
87 86 1
162 86 1
19 87 1
88 87 1
163 87 1
20 88 1
89 88 1
164 88 1
21 89 1
90 89 1
165 89 1
22 90 1
91 90 1
166 90 1
23 91 1
92 91 1
167 91 1
24 92 1
93 92 1
168 92 1
25 93 1
94 93 1
169 93 1
26 94 1
95 94 1
170 94 1
27 95 1
96 95 1
154 95 1
28 96 1
97 96 1
155 96 1
29 97 1
98 97 1
156 97 1
30 98 1
99 98 1
157 98 1
31 99 1
100 99 1
158 99 1
32 100 1
101 100 1
159 100 1
33 101 1
102 101 1
160 101 1
34 102 1
86 102 1
161 102 1
35 103 1
104 103 1
179 103 1
36 104 1
105 104 1
180 104 1
37 105 1
106 105 1
181 105 1
38 106 1
107 106 1
182 106 1
39 107 1
108 107 1
183 107 1
40 108 1
109 108 1
184 108 1
41 109 1
110 109 1
185 109 1
42 110 1
111 110 1
186 110 1
43 111 1
112 111 1
187 111 1
44 112 1
113 112 1
171 112 1
45 113 1
114 113 1
172 113 1
46 114 1
115 114 1
173 114 1
47 115 1
116 115 1
174 115 1
48 116 1
117 116 1
175 116 1
49 117 1
118 117 1
176 117 1
50 118 1
119 118 1
177 118 1
51 119 1
103 119 1
178 119 1
52 120 1
121 120 1
196 120 1
53 121 1
122 121 1
197 121 1
54 122 1
123 122 1
198 122 1
55 123 1
124 123 1
199 123 1
56 124 1
125 124 1
200 124 1
57 125 1
126 125 1
201 125 1
58 126 1
127 126 1
202 126 1
59 127 1
128 127 1
203 127 1
60 128 1
129 128 1
204 128 1
61 129 1
130 129 1
188 129 1
62 130 1
131 130 1
189 130 1
63 131 1
132 131 1
190 131 1
64 132 1
133 132 1
191 132 1
65 133 1
134 133 1
192 133 1
66 134 1
135 134 1
193 134 1
67 135 1
136 135 1
194 135 1
68 136 1
120 136 1
195 136 1
1 137 1
71 137 1
149 137 1
2 138 1
72 138 1
150 138 1
3 139 1
73 139 1
151 139 1
4 140 1
74 140 1
152 140 1
5 141 1
75 141 1
153 141 1
6 142 1
76 142 1
137 142 1
7 143 1
77 143 1
138 143 1
8 144 1
78 144 1
139 144 1
9 145 1
79 145 1
140 145 1
10 146 1
80 146 1
141 146 1
11 147 1
81 147 1
142 147 1
12 148 1
82 148 1
143 148 1
13 149 1
83 149 1
144 149 1
14 150 1
84 150 1
145 150 1
15 151 1
85 151 1
146 151 1
16 152 1
69 152 1
147 152 1
17 153 1
70 153 1
148 153 1
18 154 1
88 154 1
166 154 1
19 155 1
89 155 1
167 155 1
20 156 1
90 156 1
168 156 1
21 157 1
91 157 1
169 157 1
22 158 1
92 158 1
170 158 1
23 159 1
93 159 1
154 159 1
24 160 1
94 160 1
155 160 1
25 161 1
95 161 1
156 161 1
26 162 1
96 162 1
157 162 1
27 163 1
97 163 1
158 163 1
28 164 1
98 164 1
159 164 1
29 165 1
99 165 1
160 165 1
30 166 1
100 166 1
161 166 1
31 167 1
101 167 1
162 167 1
32 168 1
102 168 1
163 168 1
33 169 1
86 169 1
164 169 1
34 170 1
87 170 1
165 170 1
35 171 1
105 171 1
183 171 1
36 172 1
106 172 1
184 172 1
37 173 1
107 173 1
185 173 1
38 174 1
108 174 1
186 174 1
39 175 1
109 175 1
187 175 1
40 176 1
110 176 1
171 176 1
41 177 1
111 177 1
172 177 1
42 178 1
112 178 1
173 178 1
43 179 1
113 179 1
174 179 1
44 180 1
114 180 1
175 180 1
45 181 1
115 181 1
176 181 1
46 182 1
116 182 1
177 182 1
47 183 1
117 183 1
178 183 1
48 184 1
118 184 1
179 184 1
49 185 1
119 185 1
180 185 1
50 186 1
103 186 1
181 186 1
51 187 1
104 187 1
182 187 1
52 188 1
122 188 1
200 188 1
53 189 1
123 189 1
201 189 1
54 190 1
124 190 1
202 190 1
55 191 1
125 191 1
203 191 1
56 192 1
126 192 1
204 192 1
57 193 1
127 193 1
188 193 1
58 194 1
128 194 1
189 194 1
59 195 1
129 195 1
190 195 1
60 196 1
130 196 1
191 196 1
61 197 1
131 197 1
192 197 1
62 198 1
132 198 1
193 198 1
63 199 1
133 199 1
194 199 1
64 200 1
134 200 1
195 200 1
65 201 1
135 201 1
196 201 1
66 202 1
136 202 1
197 202 1
67 203 1
120 203 1
198 203 1
68 204 1
121 204 1
199 204 1
1 205 1
80 205 1
150 205 1
2 206 1
81 206 1
151 206 1
3 207 1
82 207 1
152 207 1
4 208 1
83 208 1
153 208 1
5 209 1
84 209 1
137 209 1
6 210 1
85 210 1
138 210 1
7 211 1
69 211 1
139 211 1
8 212 1
70 212 1
140 212 1
9 213 1
71 213 1
141 213 1
10 214 1
72 214 1
142 214 1
11 215 1
73 215 1
143 215 1
12 216 1
74 216 1
144 216 1
13 217 1
75 217 1
145 217 1
14 218 1
76 218 1
146 218 1
15 219 1
77 219 1
147 219 1
16 220 1
78 220 1
148 220 1
17 221 1
79 221 1
149 221 1
18 222 1
97 222 1
167 222 1
19 223 1
98 223 1
168 223 1
20 224 1
99 224 1
169 224 1
21 225 1
100 225 1
170 225 1
22 226 1
101 226 1
154 226 1
23 227 1
102 227 1
155 227 1
24 228 1
86 228 1
156 228 1
25 229 1
87 229 1
157 229 1
26 230 1
88 230 1
158 230 1
27 231 1
89 231 1
159 231 1
28 232 1
90 232 1
160 232 1
29 233 1
91 233 1
161 233 1
30 234 1
92 234 1
162 234 1
31 235 1
93 235 1
163 235 1
32 236 1
94 236 1
164 236 1
33 237 1
95 237 1
165 237 1
34 238 1
96 238 1
166 238 1
35 239 1
114 239 1
184 239 1
36 240 1
115 240 1
185 240 1
37 241 1
116 241 1
186 241 1
38 242 1
117 242 1
187 242 1
39 243 1
118 243 1
171 243 1
40 244 1
119 244 1
172 244 1
41 245 1
103 245 1
173 245 1
42 246 1
104 246 1
174 246 1
43 247 1
105 247 1
175 247 1
44 248 1
106 248 1
176 248 1
45 249 1
107 249 1
177 249 1
46 250 1
108 250 1
178 250 1
47 251 1
109 251 1
179 251 1
48 252 1
110 252 1
180 252 1
49 253 1
111 253 1
181 253 1
50 254 1
112 254 1
182 254 1
51 255 1
113 255 1
183 255 1
52 256 1
131 256 1
201 256 1
53 257 1
132 257 1
202 257 1
54 258 1
133 258 1
203 258 1
55 259 1
134 259 1
204 259 1
56 260 1
135 260 1
188 260 1
57 261 1
136 261 1
189 261 1
58 262 1
120 262 1
190 262 1
59 263 1
121 263 1
191 263 1
60 264 1
122 264 1
192 264 1
61 265 1
123 265 1
193 265 1
62 266 1
124 266 1
194 266 1
63 267 1
125 267 1
195 267 1
64 268 1
126 268 1
196 268 1
65 269 1
127 269 1
197 269 1
66 270 1
128 270 1
198 270 1
67 271 1
129 271 1
199 271 1
68 272 1
130 272 1
200 272 1
1 273 1
18 273 1
35 273 1
52 273 1
2 274 1
19 274 1
36 274 1
53 274 1
3 275 1
20 275 1
37 275 1
54 275 1
4 276 1
21 276 1
38 276 1
55 276 1
5 277 1
22 277 1
39 277 1
56 277 1
6 278 1
23 278 1
40 278 1
57 278 1
7 279 1
24 279 1
41 279 1
58 279 1
8 280 1
25 280 1
42 280 1
59 280 1
9 281 1
26 281 1
43 281 1
60 281 1
10 282 1
27 282 1
44 282 1
61 282 1
11 283 1
28 283 1
45 283 1
62 283 1
12 284 1
29 284 1
46 284 1
63 284 1
13 285 1
30 285 1
47 285 1
64 285 1
14 286 1
31 286 1
48 286 1
65 286 1
15 287 1
32 287 1
49 287 1
66 287 1
16 288 1
33 288 1
50 288 1
67 288 1
17 289 1
34 289 1
51 289 1
68 289 1
1 290 1
34 290 1
50 290 1
58 290 1
2 291 1
18 291 1
51 291 1
59 291 1
3 292 1
19 292 1
35 292 1
60 292 1
4 293 1
20 293 1
36 293 1
61 293 1
5 294 1
21 294 1
37 294 1
62 294 1
6 295 1
22 295 1
38 295 1
63 295 1
7 296 1
23 296 1
39 296 1
64 296 1
8 297 1
24 297 1
40 297 1
65 297 1
9 298 1
25 298 1
41 298 1
66 298 1
10 299 1
26 299 1
42 299 1
67 299 1
11 300 1
27 300 1
43 300 1
68 300 1
12 301 1
28 301 1
44 301 1
52 301 1
13 302 1
29 302 1
45 302 1
53 302 1
14 303 1
30 303 1
46 303 1
54 303 1
15 304 1
31 304 1
47 304 1
55 304 1
16 305 1
32 305 1
48 305 1
56 305 1
17 306 1
33 306 1
49 306 1
57 306 1
1 307 1
27 307 1
40 307 1
56 307 1
2 308 1
28 308 1
41 308 1
57 308 1
3 309 1
29 309 1
42 309 1
58 309 1
4 310 1
30 310 1
43 310 1
59 310 1
5 311 1
31 311 1
44 311 1
60 311 1
6 312 1
32 312 1
45 312 1
61 312 1
7 313 1
33 313 1
46 313 1
62 313 1
8 314 1
34 314 1
47 314 1
63 314 1
9 315 1
18 315 1
48 315 1
64 315 1
10 316 1
19 316 1
49 316 1
65 316 1
11 317 1
20 317 1
50 317 1
66 317 1
12 318 1
21 318 1
51 318 1
67 318 1
13 319 1
22 319 1
35 319 1
68 319 1
14 320 1
23 320 1
36 320 1
52 320 1
15 321 1
24 321 1
37 321 1
53 321 1
16 322 1
25 322 1
38 322 1
54 322 1
17 323 1
26 323 1
39 323 1
55 323 1
69 324 1
86 324 1
103 324 1
120 324 1
70 325 1
87 325 1
104 325 1
121 325 1
71 326 1
88 326 1
105 326 1
122 326 1
72 327 1
89 327 1
106 327 1
123 327 1
73 328 1
90 328 1
107 328 1
124 328 1
74 329 1
91 329 1
108 329 1
125 329 1
75 330 1
92 330 1
109 330 1
126 330 1
76 331 1
93 331 1
110 331 1
127 331 1
77 332 1
94 332 1
111 332 1
128 332 1
78 333 1
95 333 1
112 333 1
129 333 1
79 334 1
96 334 1
113 334 1
130 334 1
80 335 1
97 335 1
114 335 1
131 335 1
81 336 1
98 336 1
115 336 1
132 336 1
82 337 1
99 337 1
116 337 1
133 337 1
83 338 1
100 338 1
117 338 1
134 338 1
84 339 1
101 339 1
118 339 1
135 339 1
85 340 1
102 340 1
119 340 1
136 340 1
69 341 1
102 341 1
118 341 1
126 341 1
70 342 1
86 342 1
119 342 1
127 342 1
71 343 1
87 343 1
103 343 1
128 343 1
72 344 1
88 344 1
104 344 1
129 344 1
73 345 1
89 345 1
105 345 1
130 345 1
74 346 1
90 346 1
106 346 1
131 346 1
75 347 1
91 347 1
107 347 1
132 347 1
76 348 1
92 348 1
108 348 1
133 348 1
77 349 1
93 349 1
109 349 1
134 349 1
78 350 1
94 350 1
110 350 1
135 350 1
79 351 1
95 351 1
111 351 1
136 351 1
80 352 1
96 352 1
112 352 1
120 352 1
81 353 1
97 353 1
113 353 1
121 353 1
82 354 1
98 354 1
114 354 1
122 354 1
83 355 1
99 355 1
115 355 1
123 355 1
84 356 1
100 356 1
116 356 1
124 356 1
85 357 1
101 357 1
117 357 1
125 357 1
69 358 1
95 358 1
108 358 1
124 358 1
70 359 1
96 359 1
109 359 1
125 359 1
71 360 1
97 360 1
110 360 1
126 360 1
72 361 1
98 361 1
111 361 1
127 361 1
73 362 1
99 362 1
112 362 1
128 362 1
74 363 1
100 363 1
113 363 1
129 363 1
75 364 1
101 364 1
114 364 1
130 364 1
76 365 1
102 365 1
115 365 1
131 365 1
77 366 1
86 366 1
116 366 1
132 366 1
78 367 1
87 367 1
117 367 1
133 367 1
79 368 1
88 368 1
118 368 1
134 368 1
80 369 1
89 369 1
119 369 1
135 369 1
81 370 1
90 370 1
103 370 1
136 370 1
82 371 1
91 371 1
104 371 1
120 371 1
83 372 1
92 372 1
105 372 1
121 372 1
84 373 1
93 373 1
106 373 1
122 373 1
85 374 1
94 374 1
107 374 1
123 374 1
137 375 1
154 375 1
171 375 1
188 375 1
138 376 1
155 376 1
172 376 1
189 376 1
139 377 1
156 377 1
173 377 1
190 377 1
140 378 1
157 378 1
174 378 1
191 378 1
141 379 1
158 379 1
175 379 1
192 379 1
142 380 1
159 380 1
176 380 1
193 380 1
143 381 1
160 381 1
177 381 1
194 381 1
144 382 1
161 382 1
178 382 1
195 382 1
145 383 1
162 383 1
179 383 1
196 383 1
146 384 1
163 384 1
180 384 1
197 384 1
147 385 1
164 385 1
181 385 1
198 385 1
148 386 1
165 386 1
182 386 1
199 386 1
149 387 1
166 387 1
183 387 1
200 387 1
150 388 1
167 388 1
184 388 1
201 388 1
151 389 1
168 389 1
185 389 1
202 389 1
152 390 1
169 390 1
186 390 1
203 390 1
153 391 1
170 391 1
187 391 1
204 391 1
137 392 1
170 392 1
186 392 1
194 392 1
138 393 1
154 393 1
187 393 1
195 393 1
139 394 1
155 394 1
171 394 1
196 394 1
140 395 1
156 395 1
172 395 1
197 395 1
141 396 1
157 396 1
173 396 1
198 396 1
142 397 1
158 397 1
174 397 1
199 397 1
143 398 1
159 398 1
175 398 1
200 398 1
144 399 1
160 399 1
176 399 1
201 399 1
145 400 1
161 400 1
177 400 1
202 400 1
146 401 1
162 401 1
178 401 1
203 401 1
147 402 1
163 402 1
179 402 1
204 402 1
148 403 1
164 403 1
180 403 1
188 403 1
149 404 1
165 404 1
181 404 1
189 404 1
150 405 1
166 405 1
182 405 1
190 405 1
151 406 1
167 406 1
183 406 1
191 406 1
152 407 1
168 407 1
184 407 1
192 407 1
153 408 1
169 408 1
185 408 1
193 408 1
137 409 1
163 409 1
176 409 1
192 409 1
138 410 1
164 410 1
177 410 1
193 410 1
139 411 1
165 411 1
178 411 1
194 411 1
140 412 1
166 412 1
179 412 1
195 412 1
141 413 1
167 413 1
180 413 1
196 413 1
142 414 1
168 414 1
181 414 1
197 414 1
143 415 1
169 415 1
182 415 1
198 415 1
144 416 1
170 416 1
183 416 1
199 416 1
145 417 1
154 417 1
184 417 1
200 417 1
146 418 1
155 418 1
185 418 1
201 418 1
147 419 1
156 419 1
186 419 1
202 419 1
148 420 1
157 420 1
187 420 1
203 420 1
149 421 1
158 421 1
171 421 1
204 421 1
150 422 1
159 422 1
172 422 1
188 422 1
151 423 1
160 423 1
173 423 1
189 423 1
152 424 1
161 424 1
174 424 1
190 424 1
153 425 1
162 425 1
175 425 1
191 425 1
