%%MatrixMarket matrix coordinate integer general
29 425 2212
1 1 1
2 1 1
3 1 1
5 1 1
7 1 1
8 1 1
9 1 1
10 1 1
11 1 1
12 1 1
13 1 1
14 1 1
16 1 1
22 1 1
23 1 1
24 1 1
27 1 1
1 2 1
2 2 1
4 2 1
8 2 1
12 2 1
14 2 1
15 2 1
19 2 1
22 2 1
23 2 1
25 2 1
26 2 1
1 3 1
3 3 1
7 3 1
8 3 1
9 3 1
12 3 1
13 3 1
16 3 1
18 3 1
19 3 1
23 3 1
25 3 1
26 3 1
27 3 1
1 4 1
3 4 1
4 4 1
6 4 1
9 4 1
12 4 1
14 4 1
15 4 1
18 4 1
21 4 1
23 4 1
25 4 1
1 5 1
2 5 1
3 5 1
4 5 1
6 5 1
8 5 1
9 5 1
13 5 1
16 5 1
17 5 1
19 5 1
21 5 1
22 5 1
23 5 1
25 5 1
28 5 1
1 6 1
2 6 1
3 6 1
4 6 1
6 6 1
9 6 1
10 6 1
11 6 1
13 6 1
14 6 1
15 6 1
17 6 1
18 6 1
20 6 1
22 6 1
23 6 1
25 6 1
26 6 1
1 7 1
3 7 1
4 7 1
5 7 1
6 7 1
10 7 1
11 7 1
13 7 1
19 7 1
20 7 1
21 7 1
25 7 1
1 8 1
4 8 1
6 8 1
7 8 1
10 8 1
11 8 1
13 8 1
14 8 1
17 8 1
18 8 1
22 8 1
27 8 1
1 9 1
2 9 1
3 9 1
5 9 1
6 9 1
7 9 1
11 9 1
14 9 1
19 9 1
20 9 1
21 9 1
22 9 1
23 9 1
26 9 1
27 9 1
1 10 1
2 10 1
4 10 1
7 10 1
10 10 1
11 10 1
14 10 1
16 10 1
17 10 1
18 10 1
19 10 1
25 10 1
26 10 1
27 10 1
1 11 1
2 11 1
3 11 1
7 11 1
8 11 1
11 11 1
12 11 1
14 11 1
15 11 1
16 11 1
18 11 1
19 11 1
20 11 1
21 11 1
23 11 1
1 12 1
3 12 1
4 12 1
6 12 1
7 12 1
12 12 1
15 12 1
16 12 1
17 12 1
18 12 1
19 12 1
21 12 1
22 12 1
25 12 1
26 12 1
27 12 1
1 13 1
2 13 1
3 13 1
4 13 1
7 13 1
8 13 1
9 13 1
15 13 1
16 13 1
17 13 1
18 13 1
20 13 1
21 13 1
23 13 1
26 13 1
1 14 1
3 14 1
4 14 1
5 14 1
6 14 1
9 14 1
11 14 1
12 14 1
15 14 1
16 14 1
17 14 1
20 14 1
21 14 1
25 14 1
26 14 1
1 15 1
4 15 1
5 15 1
13 15 1
15 15 1
16 15 1
17 15 1
20 15 1
26 15 1
1 16 1
2 16 1
5 16 1
6 16 1
7 16 1
9 16 1
10 16 1
11 16 1
12 16 1
13 16 1
15 16 1
20 16 1
26 16 1
1 17 1
5 18 1
26 18 1
3 19 1
22 19 1
4 20 1
29 21 1
8 22 1
10 27 1
27 35 1
11 53 1
12 53 1
13 53 1
18 53 1
19 53 1
21 53 1
23 53 1
24 53 1
25 53 1
27 53 1
9 54 1
12 54 1
13 54 1
16 54 1
17 54 1
19 54 1
23 54 1
24 54 1
27 54 1
6 55 1
7 55 1
12 55 1
13 55 1
15 55 1
16 55 1
19 55 1
20 55 1
21 55 1
23 55 1
14 56 1
15 56 1
16 56 1
17 56 1
19 56 1
21 56 1
28 56 1
11 57 1
12 57 1
13 57 1
14 57 1
15 57 1
17 57 1
20 57 1
21 57 1
23 57 1
25 57 1
27 57 1
29 57 1
9 58 1
12 58 1
13 58 1
14 58 1
16 58 1
17 58 1
18 58 1
20 58 1
21 58 1
24 58 1
26 58 1
27 58 1
6 59 1
7 59 1
12 59 1
13 59 1
15 59 1
16 59 1
17 59 1
18 59 1
20 59 1
22 59 1
25 59 1
27 59 1
28 59 1
29 59 1
14 60 1
15 60 1
16 60 1
18 60 1
19 60 1
20 60 1
25 60 1
28 60 1
29 60 1
6 61 1
11 61 1
12 61 1
13 61 1
14 61 1
15 61 1
24 61 1
25 61 1
26 61 1
28 61 1
6 62 1
9 62 1
13 62 1
14 62 1
16 62 1
18 62 1
21 62 1
22 62 1
23 62 1
24 62 1
25 62 1
26 62 1
6 63 1
7 63 1
11 63 1
13 63 1
15 63 1
16 63 1
17 63 1
18 63 1
22 63 1
23 63 1
26 63 1
27 63 1
28 63 1
6 64 1
9 64 1
11 64 1
14 64 1
15 64 1
16 64 1
18 64 1
19 64 1
20 64 1
22 64 1
23 64 1
26 64 1
28 64 1
29 64 1
7 65 1
9 65 1
11 65 1
13 65 1
14 65 1
15 65 1
22 65 1
24 65 1
26 65 1
27 65 1
2 66 1
7 66 1
9 66 1
11 66 1
12 66 1
14 66 1
16 66 1
18 66 1
21 66 1
22 66 1
23 66 1
24 66 1
25 66 1
29 66 1
7 67 1
9 67 1
12 67 1
15 67 1
17 67 1
18 67 1
23 67 1
24 67 1
26 67 1
28 67 1
6 68 1
7 68 1
12 68 1
14 68 1
18 68 1
19 68 1
20 68 1
22 68 1
23 68 1
24 68 1
27 68 1
28 68 1
29 68 1
1 69 1
2 69 1
3 69 1
5 69 1
6 69 1
7 69 1
8 69 1
9 69 1
10 69 1
11 69 1
12 69 1
13 69 1
14 69 1
16 69 1
22 69 1
23 69 1
27 69 1
1 70 1
2 70 1
4 70 1
8 70 1
14 70 1
15 70 1
19 70 1
22 70 1
23 70 1
25 70 1
26 70 1
1 71 1
3 71 1
7 71 1
8 71 1
9 71 1
11 71 1
12 71 1
13 71 1
16 71 1
18 71 1
19 71 1
23 71 1
25 71 1
26 71 1
27 71 1
1 72 1
3 72 1
4 72 1
6 72 1
12 72 1
14 72 1
15 72 1
18 72 1
21 72 1
23 72 1
25 72 1
1 73 1
2 73 1
3 73 1
4 73 1
6 73 1
7 73 1
8 73 1
9 73 1
13 73 1
16 73 1
17 73 1
19 73 1
21 73 1
22 73 1
23 73 1
25 73 1
1 74 1
2 74 1
3 74 1
4 74 1
6 74 1
9 74 1
10 74 1
11 74 1
14 74 1
15 74 1
17 74 1
18 74 1
20 74 1
22 74 1
23 74 1
25 74 1
26 74 1
1 75 1
3 75 1
4 75 1
5 75 1
6 75 1
10 75 1
11 75 1
13 75 1
16 75 1
19 75 1
20 75 1
21 75 1
25 75 1
1 76 1
4 76 1
6 76 1
7 76 1
10 76 1
11 76 1
13 76 1
14 76 1
15 76 1
17 76 1
18 76 1
22 76 1
27 76 1
1 77 1
2 77 1
3 77 1
5 77 1
6 77 1
7 77 1
11 77 1
19 77 1
20 77 1
21 77 1
22 77 1
23 77 1
26 77 1
27 77 1
1 78 1
2 78 1
4 78 1
7 78 1
10 78 1
11 78 1
14 78 1
16 78 1
17 78 1
18 78 1
25 78 1
26 78 1
27 78 1
1 79 1
2 79 1
3 79 1
7 79 1
8 79 1
11 79 1
12 79 1
14 79 1
15 79 1
16 79 1
19 79 1
20 79 1
21 79 1
23 79 1
1 80 1
3 80 1
4 80 1
6 80 1
7 80 1
12 80 1
15 80 1
16 80 1
17 80 1
18 80 1
19 80 1
22 80 1
25 80 1
26 80 1
27 80 1
1 81 1
2 81 1
3 81 1
4 81 1
7 81 1
8 81 1
9 81 1
15 81 1
16 81 1
18 81 1
20 81 1
21 81 1
23 81 1
26 81 1
1 82 1
3 82 1
4 82 1
5 82 1
6 82 1
9 82 1
11 82 1
12 82 1
15 82 1
16 82 1
17 82 1
21 82 1
25 82 1
26 82 1
1 83 1
4 83 1
5 83 1
13 83 1
15 83 1
16 83 1
17 83 1
20 83 1
23 83 1
26 83 1
1 84 1
2 84 1
5 84 1
6 84 1
7 84 1
9 84 1
10 84 1
11 84 1
12 84 1
13 84 1
15 84 1
20 84 1
25 84 1
26 84 1
1 85 1
5 86 1
3 87 1
4 88 1
8 90 1
10 95 1
2 134 1
6 137 1
12 138 1
11 139 1
9 140 1
7 141 1
13 142 1
16 143 1
15 144 1
14 145 1
19 146 1
18 147 1
21 148 1
17 149 1
20 150 1
23 151 1
25 152 1
26 154 1
22 155 1
27 171 1
24 205 1
28 209 1
29 225 1
11 257 1
12 257 1
13 257 1
18 257 1
19 257 1
21 257 1
23 257 1
24 257 1
25 257 1
27 257 1
9 258 1
12 258 1
13 258 1
16 258 1
17 258 1
19 258 1
23 258 1
24 258 1
27 258 1
6 259 1
7 259 1
12 259 1
13 259 1
15 259 1
16 259 1
19 259 1
20 259 1
21 259 1
23 259 1
14 260 1
15 260 1
16 260 1
17 260 1
19 260 1
21 260 1
28 260 1
11 261 1
12 261 1
13 261 1
14 261 1
15 261 1
17 261 1
20 261 1
21 261 1
23 261 1
25 261 1
27 261 1
29 261 1
9 262 1
12 262 1
13 262 1
14 262 1
16 262 1
17 262 1
18 262 1
20 262 1
21 262 1
24 262 1
26 262 1
27 262 1
6 263 1
7 263 1
12 263 1
13 263 1
15 263 1
16 263 1
17 263 1
18 263 1
20 263 1
22 263 1
25 263 1
27 263 1
28 263 1
29 263 1
14 264 1
15 264 1
16 264 1
18 264 1
19 264 1
20 264 1
25 264 1
28 264 1
29 264 1
6 265 1
11 265 1
12 265 1
13 265 1
14 265 1
15 265 1
24 265 1
25 265 1
26 265 1
28 265 1
6 266 1
9 266 1
13 266 1
14 266 1
16 266 1
18 266 1
21 266 1
22 266 1
23 266 1
24 266 1
25 266 1
26 266 1
6 267 1
7 267 1
11 267 1
13 267 1
15 267 1
16 267 1
17 267 1
18 267 1
22 267 1
23 267 1
26 267 1
27 267 1
28 267 1
6 268 1
9 268 1
11 268 1
14 268 1
15 268 1
16 268 1
18 268 1
19 268 1
20 268 1
22 268 1
23 268 1
26 268 1
28 268 1
29 268 1
7 269 1
9 269 1
11 269 1
13 269 1
14 269 1
15 269 1
22 269 1
24 269 1
26 269 1
27 269 1
7 270 1
9 270 1
11 270 1
12 270 1
14 270 1
16 270 1
18 270 1
21 270 1
22 270 1
23 270 1
24 270 1
25 270 1
29 270 1
7 271 1
9 271 1
12 271 1
15 271 1
17 271 1
18 271 1
23 271 1
24 271 1
26 271 1
28 271 1
6 272 1
7 272 1
12 272 1
14 272 1
18 272 1
19 272 1
20 272 1
22 272 1
23 272 1
24 272 1
27 272 1
28 272 1
29 272 1
2 325 1
4 325 1
5 325 1
6 325 1
11 325 1
12 325 1
16 325 1
18 325 1
19 325 1
21 325 1
23 325 1
24 325 1
29 325 1
3 326 1
4 326 1
5 326 1
6 326 1
8 326 1
9 326 1
15 326 1
16 326 1
17 326 1
19 326 1
23 326 1
24 326 1
25 326 1
28 326 1
2 327 1
3 327 1
5 327 1
6 327 1
7 327 1
11 327 1
14 327 1
15 327 1
16 327 1
19 327 1
20 327 1
21 327 1
23 327 1
24 327 1
25 327 1
27 327 1
28 327 1
29 327 1
3 328 1
5 328 1
9 328 1
10 328 1
11 328 1
13 328 1
14 328 1
15 328 1
16 328 1
17 328 1
21 328 1
24 328 1
25 328 1
26 328 1
28 328 1
2 329 1
3 329 1
7 329 1
8 329 1
9 329 1
11 329 1
12 329 1
14 329 1
15 329 1
17 329 1
18 329 1
20 329 1
21 329 1
22 329 1
23 329 1
27 329 1
29 329 1
7 330 1
8 330 1
9 330 1
12 330 1
13 330 1
14 330 1
16 330 1
17 330 1
18 330 1
20 330 1
24 330 1
25 330 1
29 330 1
4 331 1
6 331 1
7 331 1
8 331 1
10 331 1
12 331 1
13 331 1
15 331 1
18 331 1
20 331 1
24 331 1
29 331 1
4 332 1
8 332 1
13 332 1
14 332 1
18 332 1
19 332 1
26 332 1
27 332 1
4 333 1
6 333 1
11 333 1
12 333 1
22 333 1
23 333 1
24 333 1
27 333 1
28 333 1
2 334 1
4 334 1
6 334 1
9 334 1
10 334 1
16 334 1
18 334 1
19 334 1
21 334 1
23 334 1
25 334 1
29 334 1
2 335 1
4 335 1
6 335 1
7 335 1
10 335 1
11 335 1
15 335 1
16 335 1
17 335 1
19 335 1
23 335 1
25 335 1
27 335 1
2 336 1
4 336 1
5 336 1
9 336 1
10 336 1
11 336 1
13 336 1
14 336 1
15 336 1
16 336 1
19 336 1
20 336 1
21 336 1
23 336 1
24 336 1
25 336 1
28 336 1
3 337 1
4 337 1
7 337 1
9 337 1
10 337 1
11 337 1
12 337 1
14 337 1
15 337 1
17 337 1
21 337 1
24 337 1
25 337 1
26 337 1
2 338 1
7 338 1
9 338 1
12 338 1
13 338 1
14 338 1
16 338 1
17 338 1
18 338 1
20 338 1
21 338 1
22 338 1
23 338 1
24 338 1
27 338 1
28 338 1
4 339 1
5 339 1
7 339 1
12 339 1
13 339 1
15 339 1
17 339 1
18 339 1
20 339 1
25 339 1
26 339 1
27 339 1
28 339 1
29 339 1
3 340 1
4 340 1
6 340 1
8 340 1
12 340 1
13 340 1
14 340 1
18 340 1
19 340 1
20 340 1
22 340 1
27 340 1
2 342 1
3 342 1
4 342 1
5 342 1
6 342 1
8 342 1
10 342 1
11 342 1
13 342 1
14 342 1
15 342 1
17 342 1
18 342 1
19 342 1
27 342 1
2 343 1
5 343 1
6 343 1
9 343 1
11 343 1
12 343 1
13 343 1
15 343 1
16 343 1
17 343 1
20 343 1
21 343 1
24 343 1
4 344 1
6 344 1
7 344 1
8 344 1
9 344 1
12 344 1
13 344 1
16 344 1
18 344 1
19 344 1
20 344 1
23 344 1
24 344 1
27 344 1
29 344 1
3 345 1
4 345 1
6 345 1
7 345 1
10 345 1
12 345 1
14 345 1
16 345 1
17 345 1
19 345 1
21 345 1
23 345 1
24 345 1
25 345 1
27 345 1
28 345 1
2 346 1
3 346 1
6 346 1
8 346 1
10 346 1
12 346 1
14 346 1
20 346 1
25 346 1
26 346 1
27 346 1
28 346 1
3 347 1
5 347 1
8 347 1
12 347 1
13 347 1
14 347 1
15 347 1
17 347 1
18 347 1
22 347 1
23 347 1
29 347 1
5 348 1
10 348 1
13 348 1
15 348 1
16 348 1
17 348 1
18 348 1
20 348 1
21 348 1
24 348 1
25 348 1
29 348 1
4 349 1
5 349 1
6 349 1
11 349 1
13 349 1
16 349 1
18 349 1
19 349 1
20 349 1
21 349 1
23 349 1
26 349 1
4 350 1
9 350 1
10 350 1
11 350 1
12 350 1
13 350 1
14 350 1
16 350 1
19 350 1
21 350 1
22 350 1
23 350 1
24 350 1
25 350 1
27 350 1
28 350 1
29 350 1
2 351 1
3 351 1
4 351 1
5 351 1
6 351 1
7 351 1
8 351 1
9 351 1
13 351 1
14 351 1
16 351 1
25 351 1
28 351 1
2 352 1
5 352 1
7 352 1
8 352 1
11 352 1
12 352 1
14 352 1
16 352 1
17 352 1
18 352 1
24 352 1
26 352 1
2 353 1
4 353 1
8 353 1
9 353 1
10 353 1
14 353 1
17 353 1
18 353 1
20 353 1
21 353 1
22 353 1
28 353 1
3 354 1
4 354 1
6 354 1
7 354 1
10 354 1
11 354 1
13 354 1
14 354 1
15 354 1
18 354 1
20 354 1
21 354 1
23 354 1
24 354 1
26 354 1
27 354 1
2 355 1
3 355 1
5 355 1
6 355 1
8 355 1
9 355 1
10 355 1
11 355 1
12 355 1
15 355 1
16 355 1
18 355 1
21 355 1
22 355 1
23 355 1
24 355 1
25 355 1
27 355 1
28 355 1
2 356 1
6 356 1
7 356 1
8 356 1
9 356 1
12 356 1
13 356 1
18 356 1
19 356 1
21 356 1
24 356 1
25 356 1
27 356 1
2 357 1
3 357 1
4 357 1
5 357 1
7 357 1
12 357 1
14 357 1
15 357 1
16 357 1
19 357 1
21 357 1
24 357 1
27 357 1
28 357 1
29 357 1
2 358 1
3 358 1
5 358 1
7 358 1
8 358 1
9 358 1
10 358 1
11 358 1
12 358 1
13 358 1
14 358 1
16 358 1
22 358 1
23 358 1
24 358 1
25 358 1
27 358 1
4 359 1
5 359 1
6 359 1
7 359 1
8 359 1
9 359 1
11 359 1
12 359 1
14 359 1
17 359 1
19 359 1
21 359 1
23 359 1
24 359 1
25 359 1
26 359 1
29 359 1
6 360 1
7 360 1
8 360 1
9 360 1
11 360 1
14 360 1
15 360 1
16 360 1
18 360 1
19 360 1
20 360 1
21 360 1
22 360 1
23 360 1
25 360 1
27 360 1
28 360 1
2 361 1
3 361 1
5 361 1
6 361 1
7 361 1
9 361 1
16 361 1
18 361 1
19 361 1
25 361 1
26 361 1
27 361 1
28 361 1
2 362 1
4 362 1
5 362 1
6 362 1
7 362 1
8 362 1
14 362 1
16 362 1
17 362 1
18 362 1
22 362 1
23 362 1
26 362 1
27 362 1
28 362 1
6 363 1
8 363 1
14 363 1
16 363 1
17 363 1
19 363 1
20 363 1
22 363 1
23 363 1
25 363 1
28 363 1
29 363 1
2 364 1
3 364 1
13 364 1
14 364 1
16 364 1
17 364 1
18 364 1
19 364 1
20 364 1
21 364 1
24 364 1
25 364 1
26 364 1
3 365 1
4 365 1
6 365 1
8 365 1
12 365 1
13 365 1
14 365 1
18 365 1
19 365 1
20 365 1
22 365 1
27 365 1
2 366 1
3 366 1
4 366 1
6 366 1
8 366 1
10 366 1
11 366 1
13 366 1
14 366 1
15 366 1
17 366 1
18 366 1
19 366 1
26 366 1
27 366 1
3 367 1
4 367 1
5 367 1
9 367 1
13 367 1
15 367 1
17 367 1
18 367 1
19 367 1
20 367 1
22 367 1
23 367 1
29 367 1
4 368 1
5 368 1
7 368 1
12 368 1
13 368 1
15 368 1
17 368 1
18 368 1
20 368 1
25 368 1
26 368 1
27 368 1
28 368 1
29 368 1
2 369 1
5 369 1
10 369 1
11 369 1
12 369 1
15 369 1
17 369 1
20 369 1
22 369 1
2 370 1
5 370 1
6 370 1
9 370 1
11 370 1
12 370 1
13 370 1
15 370 1
16 370 1
17 370 1
20 370 1
21 370 1
24 370 1
27 370 1
2 371 1
5 371 1
7 371 1
8 371 1
9 371 1
11 371 1
13 371 1
20 371 1
21 371 1
27 371 1
5 372 1
7 372 1
8 372 1
9 372 1
10 372 1
12 372 1
14 372 1
15 372 1
21 372 1
5 373 1
7 373 1
8 373 1
10 373 1
11 373 1
12 373 1
15 373 1
16 373 1
19 373 1
21 373 1
23 373 1
24 373 1
26 373 1
29 373 1
8 374 1
9 374 1
10 374 1
11 374 1
12 374 1
16 374 1
18 374 1
21 374 1
22 374 1
23 374 1
24 374 1
25 374 1
26 374 1
28 374 1
29 374 1
5 376 1
7 376 1
10 376 1
18 376 1
19 376 1
20 376 1
21 376 1
24 376 1
27 376 1
2 377 1
3 377 1
6 377 1
7 377 1
8 377 1
13 377 1
17 377 1
19 377 1
20 377 1
23 377 1
26 377 1
27 377 1
29 377 1
2 378 1
4 378 1
6 378 1
7 378 1
8 378 1
10 378 1
12 378 1
13 378 1
16 378 1
19 378 1
21 378 1
22 378 1
23 378 1
24 378 1
25 378 1
26 378 1
27 378 1
28 378 1
29 378 1
2 379 1
5 379 1
6 379 1
7 379 1
8 379 1
10 379 1
11 379 1
12 379 1
13 379 1
15 379 1
16 379 1
17 379 1
19 379 1
20 379 1
21 379 1
22 379 1
25 379 1
28 379 1
2 380 1
3 380 1
5 380 1
7 380 1
9 380 1
10 380 1
11 380 1
12 380 1
13 380 1
14 380 1
15 380 1
16 380 1
17 380 1
19 380 1
21 380 1
23 380 1
24 380 1
26 380 1
2 381 1
3 381 1
4 381 1
8 381 1
9 381 1
10 381 1
11 381 1
13 381 1
14 381 1
15 381 1
16 381 1
17 381 1
21 381 1
22 381 1
24 381 1
25 381 1
26 381 1
28 381 1
2 382 1
4 382 1
6 382 1
8 382 1
9 382 1
14 382 1
15 382 1
16 382 1
17 382 1
18 382 1
21 382 1
22 382 1
27 382 1
2 383 1
12 383 1
14 383 1
15 383 1
17 383 1
18 383 1
27 383 1
28 383 1
5 384 1
6 384 1
7 384 1
11 384 1
14 384 1
18 384 1
24 384 1
26 384 1
29 384 1
2 385 1
3 385 1
6 385 1
7 385 1
8 385 1
9 385 1
10 385 1
12 385 1
13 385 1
18 385 1
20 385 1
22 385 1
24 385 1
2 386 1
4 386 1
5 386 1
6 386 1
8 386 1
11 386 1
12 386 1
13 386 1
16 386 1
18 386 1
19 386 1
20 386 1
23 386 1
28 386 1
29 386 1
3 387 1
5 387 1
6 387 1
7 387 1
8 387 1
9 387 1
11 387 1
12 387 1
15 387 1
16 387 1
19 387 1
20 387 1
23 387 1
25 387 1
28 387 1
2 388 1
3 388 1
4 388 1
5 388 1
6 388 1
9 388 1
10 388 1
11 388 1
12 388 1
13 388 1
14 388 1
15 388 1
19 388 1
20 388 1
21 388 1
23 388 1
24 388 1
25 388 1
26 388 1
29 388 1
3 389 1
4 389 1
5 389 1
8 389 1
9 389 1
10 389 1
11 389 1
12 389 1
14 389 1
16 389 1
17 389 1
20 389 1
21 389 1
22 389 1
23 389 1
24 389 1
25 389 1
27 389 1
3 390 1
4 390 1
9 390 1
11 390 1
15 390 1
17 390 1
18 390 1
21 390 1
23 390 1
24 390 1
25 390 1
26 390 1
27 390 1
28 390 1
29 390 1
4 391 1
9 391 1
14 391 1
17 391 1
18 391 1
19 391 1
22 391 1
25 391 1
28 391 1
29 391 1
7 393 1
10 393 1
12 393 1
14 393 1
16 393 1
17 393 1
20 393 1
21 393 1
26 393 1
6 394 1
7 394 1
8 394 1
10 394 1
11 394 1
12 394 1
13 394 1
14 394 1
15 394 1
16 394 1
19 394 1
21 394 1
22 394 1
23 394 1
24 394 1
28 394 1
29 394 1
2 395 1
6 395 1
7 395 1
8 395 1
9 395 1
11 395 1
13 395 1
15 395 1
18 395 1
19 395 1
20 395 1
21 395 1
24 395 1
25 395 1
28 395 1
2 396 1
6 396 1
8 396 1
9 396 1
13 396 1
18 396 1
20 396 1
23 396 1
24 396 1
27 396 1
29 396 1
2 397 1
5 397 1
8 397 1
14 397 1
17 397 1
20 397 1
23 397 1
24 397 1
25 397 1
27 397 1
29 397 1
3 398 1
6 398 1
7 398 1
8 398 1
12 398 1
14 398 1
16 398 1
17 398 1
19 398 1
21 398 1
23 398 1
24 398 1
25 398 1
26 398 1
27 398 1
28 398 1
2 399 1
4 399 1
7 399 1
8 399 1
10 399 1
11 399 1
13 399 1
14 399 1
15 399 1
16 399 1
18 399 1
19 399 1
21 399 1
22 399 1
25 399 1
28 399 1
2 400 1
5 400 1
7 400 1
8 400 1
9 400 1
10 400 1
12 400 1
13 400 1
15 400 1
18 400 1
19 400 1
20 400 1
26 400 1
27 400 1
28 400 1
3 401 1
10 401 1
11 401 1
12 401 1
13 401 1
17 401 1
18 401 1
20 401 1
22 401 1
23 401 1
24 401 1
26 401 1
28 401 1
4 402 1
6 402 1
7 402 1
8 402 1
9 402 1
10 402 1
11 402 1
12 402 1
14 402 1
17 402 1
22 402 1
23 402 1
25 402 1
28 402 1
29 402 1
2 403 1
5 403 1
6 403 1
8 403 1
9 403 1
10 403 1
11 403 1
13 403 1
14 403 1
16 403 1
17 403 1
19 403 1
21 403 1
25 403 1
27 403 1
3 404 1
5 404 1
9 404 1
10 404 1
14 404 1
15 404 1
18 404 1
19 404 1
21 404 1
24 404 1
26 404 1
27 404 1
29 404 1
2 405 1
3 405 1
4 405 1
5 405 1
8 405 1
10 405 1
12 405 1
16 405 1
18 405 1
19 405 1
20 405 1
22 405 1
26 405 1
27 405 1
28 405 1
29 405 1
3 406 1
4 406 1
5 406 1
6 406 1
7 406 1
8 406 1
11 406 1
12 406 1
14 406 1
15 406 1
16 406 1
17 406 1
18 406 1
20 406 1
22 406 1
23 406 1
27 406 1
2 407 1
3 407 1
4 407 1
6 407 1
7 407 1
9 407 1
10 407 1
11 407 1
13 407 1
15 407 1
16 407 1
17 407 1
19 407 1
23 407 1
24 407 1
25 407 1
26 407 1
29 407 1
4 408 1
6 408 1
9 408 1
10 408 1
13 408 1
15 408 1
17 408 1
18 408 1
21 408 1
22 408 1
24 408 1
25 408 1
28 408 1
29 408 1
3 409 1
4 409 1
5 409 1
8 409 1
9 409 1
12 409 1
17 409 1
18 409 1
22 409 1
23 409 1
24 409 1
25 409 1
26 409 1
28 409 1
3 410 1
4 410 1
5 410 1
7 410 1
11 410 1
12 410 1
14 410 1
16 410 1
17 410 1
18 410 1
19 410 1
20 410 1
21 410 1
22 410 1
24 410 1
25 410 1
27 410 1
2 411 1
3 411 1
4 411 1
6 411 1
8 411 1
9 411 1
10 411 1
11 411 1
12 411 1
13 411 1
14 411 1
15 411 1
16 411 1
20 411 1
21 411 1
23 411 1
24 411 1
26 411 1
27 411 1
28 411 1
2 412 1
4 412 1
6 412 1
7 412 1
8 412 1
9 412 1
10 412 1
11 412 1
15 412 1
18 412 1
22 412 1
23 412 1
25 412 1
27 412 1
29 412 1
2 413 1
7 413 1
8 413 1
9 413 1
10 413 1
13 413 1
16 413 1
17 413 1
18 413 1
19 413 1
21 413 1
24 413 1
25 413 1
26 413 1
27 413 1
29 413 1
2 414 1
5 414 1
6 414 1
7 414 1
8 414 1
12 414 1
13 414 1
14 414 1
15 414 1
19 414 1
20 414 1
21 414 1
22 414 1
26 414 1
27 414 1
29 414 1
3 415 1
6 415 1
10 415 1
11 415 1
13 415 1
22 415 1
23 415 1
26 415 1
27 415 1
4 416 1
9 416 1
14 416 1
17 416 1
18 416 1
19 416 1
22 416 1
25 416 1
28 416 1
5 417 1
7 417 1
12 417 1
14 417 1
16 417 1
17 417 1
20 417 1
21 417 1
3 418 1
5 418 1
6 418 1
8 418 1
11 418 1
12 418 1
13 418 1
14 418 1
15 418 1
16 418 1
18 418 1
20 418 1
23 418 1
27 418 1
28 418 1
29 418 1
3 419 1
4 419 1
9 419 1
11 419 1
15 419 1
17 419 1
18 419 1
21 419 1
23 419 1
24 419 1
25 419 1
26 419 1
27 419 1
28 419 1
29 419 1
4 420 1
7 420 1
9 420 1
10 420 1
12 420 1
16 420 1
18 420 1
19 420 1
20 420 1
21 420 1
22 420 1
25 420 1
26 420 1
28 420 1
29 420 1
6 421 1
7 421 1
8 421 1
10 421 1
11 421 1
12 421 1
13 421 1
14 421 1
15 421 1
16 421 1
19 421 1
21 421 1
22 421 1
23 421 1
24 421 1
27 421 1
28 421 1
29 421 1
2 422 1
5 422 1
6 422 1
8 422 1
9 422 1
10 422 1
11 422 1
13 422 1
15 422 1
25 422 1
27 422 1
28 422 1
3 423 1
7 423 1
9 423 1
17 423 1
18 423 1
19 423 1
24 423 1
26 423 1
4 424 1
5 424 1
6 424 1
7 424 1
10 424 1
12 424 1
13 424 1
14 424 1
16 424 1
17 424 1
19 424 1
20 424 1
21 424 1
22 424 1
26 424 1
28 424 1
2 425 1
3 425 1
5 425 1
10 425 1
11 425 1
13 425 1
14 425 1
15 425 1
20 425 1
22 425 1
23 425 1
24 425 1
26 425 1
27 425 1
