%%MatrixMarket matrix coordinate integer general
19 175 548
2 1 1
3 1 1
4 1 1
9 1 1
10 1 1
11 1 1
12 1 1
13 1 1
15 1 1
16 1 1
17 1 1
19 1 1
1 2 1
2 2 1
3 2 1
4 2 1
5 2 1
10 2 1
12 2 1
14 2 1
18 2 1
1 3 1
3 3 1
4 3 1
6 3 1
7 3 1
8 3 1
10 3 1
11 3 1
12 3 1
14 3 1
15 3 1
17 3 1
19 3 1
1 4 1
2 4 1
3 4 1
6 4 1
8 4 1
9 4 1
11 4 1
12 4 1
15 4 1
17 4 1
18 4 1
1 5 1
2 5 1
3 5 1
5 5 1
6 5 1
8 5 1
10 5 1
11 5 1
13 5 1
14 5 1
15 5 1
2 6 1
3 6 1
4 6 1
7 6 1
8 6 1
10 6 1
12 6 1
13 6 1
15 6 1
16 6 1
3 7 1
11 7 1
1 8 1
14 8 1
17 8 1
8 9 1
6 12 1
7 19 1
9 19 1
10 19 1
14 19 1
5 20 1
7 20 1
9 20 1
11 20 1
14 20 1
2 21 1
5 21 1
7 21 1
10 21 1
14 21 1
13 24 1
12 26 1
18 26 1
19 26 1
16 27 1
18 27 1
4 28 1
15 28 1
17 28 1
18 28 1
19 28 1
3 29 1
4 29 1
9 29 1
10 29 1
11 29 1
13 29 1
15 29 1
16 29 1
17 29 1
19 29 1
1 30 1
2 30 1
3 30 1
4 30 1
5 30 1
9 30 1
10 30 1
12 30 1
14 30 1
16 30 1
18 30 1
1 31 1
3 31 1
4 31 1
5 31 1
6 31 1
7 31 1
8 31 1
10 31 1
11 31 1
12 31 1
14 31 1
17 31 1
19 31 1
1 32 1
2 32 1
3 32 1
6 32 1
7 32 1
8 32 1
9 32 1
11 32 1
12 32 1
15 32 1
17 32 1
18 32 1
19 32 1
1 33 1
2 33 1
3 33 1
5 33 1
6 33 1
8 33 1
11 33 1
13 33 1
14 33 1
15 33 1
18 33 1
2 34 1
3 34 1
4 34 1
7 34 1
8 34 1
10 34 1
12 34 1
13 34 1
15 34 1
16 34 1
3 35 1
1 36 1
8 37 1
6 40 1
4 56 1
2 57 1
9 58 1
5 59 1
7 60 1
10 61 1
11 63 1
14 64 1
7 75 1
9 75 1
10 75 1
14 75 1
5 76 1
7 76 1
9 76 1
11 76 1
14 76 1
2 77 1
5 77 1
7 77 1
10 77 1
14 77 1
13 80 1
12 85 1
16 86 1
15 87 1
19 88 1
18 89 1
17 92 1
12 110 1
18 110 1
19 110 1
16 111 1
18 111 1
15 112 1
17 112 1
18 112 1
19 112 1
1 135 1
4 135 1
5 135 1
7 135 1
8 135 1
9 135 1
11 135 1
12 135 1
13 135 1
14 135 1
15 135 1
17 135 1
2 136 1
9 136 1
10 136 1
11 136 1
12 136 1
13 136 1
15 136 1
16 136 1
18 136 1
1 137 1
2 137 1
7 137 1
8 137 1
11 137 1
14 137 1
16 137 1
17 137 1
18 137 1
1 138 1
2 138 1
5 138 1
6 138 1
9 138 1
12 138 1
13 138 1
14 138 1
17 138 1
18 138 1
19 138 1
1 139 1
4 139 1
7 139 1
9 139 1
10 139 1
12 139 1
13 139 1
15 139 1
16 139 1
17 139 1
18 139 1
1 140 1
6 140 1
7 140 1
9 140 1
10 140 1
16 140 1
18 140 1
1 142 1
2 142 1
5 142 1
7 142 1
8 142 1
10 142 1
12 142 1
13 142 1
14 142 1
15 142 1
17 142 1
2 143 1
5 143 1
7 143 1
10 143 1
14 143 1
15 143 1
16 143 1
19 143 1
1 144 1
2 144 1
4 144 1
5 144 1
8 144 1
9 144 1
17 144 1
1 145 1
2 145 1
6 145 1
7 145 1
11 145 1
12 145 1
13 145 1
15 145 1
1 146 1
5 146 1
10 146 1
11 146 1
12 146 1
13 146 1
14 146 1
15 146 1
16 146 1
17 146 1
18 146 1
1 147 1
4 147 1
5 147 1
6 147 1
7 147 1
9 147 1
11 147 1
16 147 1
18 147 1
2 148 1
4 148 1
9 148 1
10 148 1
11 148 1
12 148 1
13 148 1
16 148 1
17 148 1
19 148 1
1 149 1
4 149 1
5 149 1
10 149 1
11 149 1
12 149 1
13 149 1
14 149 1
15 149 1
16 149 1
17 149 1
18 149 1
6 150 1
8 150 1
12 150 1
13 150 1
14 150 1
15 150 1
16 150 1
17 150 1
18 150 1
2 151 1
9 151 1
10 151 1
11 151 1
15 151 1
16 151 1
19 151 1
5 152 1
10 152 1
11 152 1
12 152 1
13 152 1
15 152 1
1 153 1
6 153 1
7 153 1
9 153 1
10 153 1
16 153 1
18 153 1
2 154 1
5 154 1
7 154 1
8 154 1
10 154 1
12 154 1
13 154 1
15 154 1
1 156 1
2 156 1
4 156 1
5 156 1
8 156 1
9 156 1
13 156 1
15 156 1
16 156 1
19 156 1
2 157 1
4 157 1
7 157 1
11 157 1
13 157 1
16 157 1
18 157 1
4 158 1
5 158 1
6 158 1
7 158 1
8 158 1
9 158 1
11 158 1
12 158 1
13 158 1
14 158 1
16 158 1
17 158 1
19 158 1
8 159 1
13 159 1
17 159 1
2 160 1
4 160 1
5 160 1
6 160 1
8 160 1
9 160 1
13 160 1
14 160 1
15 160 1
16 160 1
19 160 1
1 161 1
2 161 1
4 161 1
8 161 1
9 161 1
10 161 1
11 161 1
12 161 1
13 161 1
14 161 1
16 161 1
17 161 1
19 161 1
1 163 1
2 163 1
5 163 1
8 163 1
9 163 1
12 163 1
17 163 1
18 163 1
19 163 1
2 164 1
4 164 1
9 164 1
10 164 1
11 164 1
14 164 1
16 164 1
18 164 1
6 165 1
8 165 1
15 165 1
18 165 1
19 165 1
2 166 1
5 166 1
8 166 1
9 166 1
12 166 1
17 166 1
18 166 1
19 166 1
2 167 1
4 167 1
6 167 1
7 167 1
8 167 1
11 167 1
13 167 1
16 167 1
17 167 1
18 167 1
1 168 1
5 168 1
7 168 1
8 168 1
9 168 1
11 168 1
15 168 1
18 168 1
19 168 1
1 169 1
5 169 1
10 169 1
11 169 1
13 169 1
14 169 1
15 169 1
17 169 1
18 169 1
19 169 1
2 170 1
4 170 1
6 170 1
7 170 1
8 170 1
11 170 1
13 170 1
15 170 1
16 170 1
19 170 1
2 171 1
4 171 1
7 171 1
11 171 1
13 171 1
16 171 1
18 171 1
2 172 1
4 172 1
7 172 1
11 172 1
16 172 1
18 172 1
1 173 1
2 173 1
4 173 1
6 173 1
7 173 1
11 173 1
13 173 1
14 173 1
16 173 1
18 173 1
2 174 1
4 174 1
8 174 1
9 174 1
10 174 1
11 174 1
12 174 1
13 174 1
14 174 1
16 174 1
17 174 1
19 174 1
2 175 1
5 175 1
9 175 1
12 175 1
14 175 1
18 175 1
19 175 1
