%%MatrixMarket matrix coordinate integer general
108 225 756
1 1 1
10 1 1
19 1 1
2 2 1
11 2 1
20 2 1
3 3 1
12 3 1
21 3 1
4 4 1
13 4 1
22 4 1
5 5 1
14 5 1
23 5 1
6 6 1
15 6 1
24 6 1
7 7 1
16 7 1
25 7 1
8 8 1
17 8 1
26 8 1
9 9 1
18 9 1
27 9 1
1 10 1
11 10 1
23 10 1
2 11 1
12 11 1
24 11 1
3 12 1
13 12 1
25 12 1
4 13 1
14 13 1
26 13 1
5 14 1
15 14 1
27 14 1
6 15 1
16 15 1
19 15 1
7 16 1
17 16 1
20 16 1
8 17 1
18 17 1
21 17 1
9 18 1
10 18 1
22 18 1
1 19 1
16 19 1
24 19 1
2 20 1
17 20 1
25 20 1
3 21 1
18 21 1
26 21 1
4 22 1
10 22 1
27 22 1
5 23 1
11 23 1
19 23 1
6 24 1
12 24 1
20 24 1
7 25 1
13 25 1
21 25 1
8 26 1
14 26 1
22 26 1
9 27 1
15 27 1
23 27 1
1 28 1
17 28 1
21 28 1
2 29 1
18 29 1
22 29 1
3 30 1
10 30 1
23 30 1
4 31 1
11 31 1
24 31 1
5 32 1
12 32 1
25 32 1
6 33 1
13 33 1
26 33 1
7 34 1
14 34 1
27 34 1
8 35 1
15 35 1
19 35 1
9 36 1
16 36 1
20 36 1
28 37 1
37 37 1
46 37 1
29 38 1
38 38 1
47 38 1
30 39 1
39 39 1
48 39 1
31 40 1
40 40 1
49 40 1
32 41 1
41 41 1
50 41 1
33 42 1
42 42 1
51 42 1
34 43 1
43 43 1
52 43 1
35 44 1
44 44 1
53 44 1
36 45 1
45 45 1
54 45 1
28 46 1
38 46 1
50 46 1
29 47 1
39 47 1
51 47 1
30 48 1
40 48 1
52 48 1
31 49 1
41 49 1
53 49 1
32 50 1
42 50 1
54 50 1
33 51 1
43 51 1
46 51 1
34 52 1
44 52 1
47 52 1
35 53 1
45 53 1
48 53 1
36 54 1
37 54 1
49 54 1
28 55 1
43 55 1
51 55 1
29 56 1
44 56 1
52 56 1
30 57 1
45 57 1
53 57 1
31 58 1
37 58 1
54 58 1
32 59 1
38 59 1
46 59 1
33 60 1
39 60 1
47 60 1
34 61 1
40 61 1
48 61 1
35 62 1
41 62 1
49 62 1
36 63 1
42 63 1
50 63 1
28 64 1
44 64 1
48 64 1
29 65 1
45 65 1
49 65 1
30 66 1
37 66 1
50 66 1
31 67 1
38 67 1
51 67 1
32 68 1
39 68 1
52 68 1
33 69 1
40 69 1
53 69 1
34 70 1
41 70 1
54 70 1
35 71 1
42 71 1
46 71 1
36 72 1
43 72 1
47 72 1
55 73 1
64 73 1
73 73 1
56 74 1
65 74 1
74 74 1
57 75 1
66 75 1
75 75 1
58 76 1
67 76 1
76 76 1
59 77 1
68 77 1
77 77 1
60 78 1
69 78 1
78 78 1
61 79 1
70 79 1
79 79 1
62 80 1
71 80 1
80 80 1
63 81 1
72 81 1
81 81 1
55 82 1
65 82 1
77 82 1
56 83 1
66 83 1
78 83 1
57 84 1
67 84 1
79 84 1
58 85 1
68 85 1
80 85 1
59 86 1
69 86 1
81 86 1
60 87 1
70 87 1
73 87 1
61 88 1
71 88 1
74 88 1
62 89 1
72 89 1
75 89 1
63 90 1
64 90 1
76 90 1
55 91 1
70 91 1
78 91 1
56 92 1
71 92 1
79 92 1
57 93 1
72 93 1
80 93 1
58 94 1
64 94 1
81 94 1
59 95 1
65 95 1
73 95 1
60 96 1
66 96 1
74 96 1
61 97 1
67 97 1
75 97 1
62 98 1
68 98 1
76 98 1
63 99 1
69 99 1
77 99 1
55 100 1
71 100 1
75 100 1
56 101 1
72 101 1
76 101 1
57 102 1
64 102 1
77 102 1
58 103 1
65 103 1
78 103 1
59 104 1
66 104 1
79 104 1
60 105 1
67 105 1
80 105 1
61 106 1
68 106 1
81 106 1
62 107 1
69 107 1
73 107 1
63 108 1
70 108 1
74 108 1
82 109 1
91 109 1
100 109 1
83 110 1
92 110 1
101 110 1
84 111 1
93 111 1
102 111 1
85 112 1
94 112 1
103 112 1
86 113 1
95 113 1
104 113 1
87 114 1
96 114 1
105 114 1
88 115 1
97 115 1
106 115 1
89 116 1
98 116 1
107 116 1
90 117 1
99 117 1
108 117 1
82 118 1
92 118 1
104 118 1
83 119 1
93 119 1
105 119 1
84 120 1
94 120 1
106 120 1
85 121 1
95 121 1
107 121 1
86 122 1
96 122 1
108 122 1
87 123 1
97 123 1
100 123 1
88 124 1
98 124 1
101 124 1
89 125 1
99 125 1
102 125 1
90 126 1
91 126 1
103 126 1
82 127 1
97 127 1
105 127 1
83 128 1
98 128 1
106 128 1
84 129 1
99 129 1
107 129 1
85 130 1
91 130 1
108 130 1
86 131 1
92 131 1
100 131 1
87 132 1
93 132 1
101 132 1
88 133 1
94 133 1
102 133 1
89 134 1
95 134 1
103 134 1
90 135 1
96 135 1
104 135 1
82 136 1
98 136 1
102 136 1
83 137 1
99 137 1
103 137 1
84 138 1
91 138 1
104 138 1
85 139 1
92 139 1
105 139 1
86 140 1
93 140 1
106 140 1
87 141 1
94 141 1
107 141 1
88 142 1
95 142 1
108 142 1
89 143 1
96 143 1
100 143 1
90 144 1
97 144 1
101 144 1
1 145 1
28 145 1
55 145 1
82 145 1
2 146 1
29 146 1
56 146 1
83 146 1
3 147 1
30 147 1
57 147 1
84 147 1
4 148 1
31 148 1
58 148 1
85 148 1
5 149 1
32 149 1
59 149 1
86 149 1
6 150 1
33 150 1
60 150 1
87 150 1
7 151 1
34 151 1
61 151 1
88 151 1
8 152 1
35 152 1
62 152 1
89 152 1
9 153 1
36 153 1
63 153 1
90 153 1
10 154 1
37 154 1
64 154 1
91 154 1
11 155 1
38 155 1
65 155 1
92 155 1
12 156 1
39 156 1
66 156 1
93 156 1
13 157 1
40 157 1
67 157 1
94 157 1
14 158 1
41 158 1
68 158 1
95 158 1
15 159 1
42 159 1
69 159 1
96 159 1
16 160 1
43 160 1
70 160 1
97 160 1
17 161 1
44 161 1
71 161 1
98 161 1
18 162 1
45 162 1
72 162 1
99 162 1
19 163 1
46 163 1
73 163 1
100 163 1
20 164 1
47 164 1
74 164 1
101 164 1
21 165 1
48 165 1
75 165 1
102 165 1
22 166 1
49 166 1
76 166 1
103 166 1
23 167 1
50 167 1
77 167 1
104 167 1
24 168 1
51 168 1
78 168 1
105 168 1
25 169 1
52 169 1
79 169 1
106 169 1
26 170 1
53 170 1
80 170 1
107 170 1
27 171 1
54 171 1
81 171 1
108 171 1
1 172 1
36 172 1
58 172 1
84 172 1
2 173 1
28 173 1
59 173 1
85 173 1
3 174 1
29 174 1
60 174 1
86 174 1
4 175 1
30 175 1
61 175 1
87 175 1
5 176 1
31 176 1
62 176 1
88 176 1
6 177 1
32 177 1
63 177 1
89 177 1
7 178 1
33 178 1
55 178 1
90 178 1
8 179 1
34 179 1
56 179 1
82 179 1
9 180 1
35 180 1
57 180 1
83 180 1
10 181 1
45 181 1
67 181 1
93 181 1
11 182 1
37 182 1
68 182 1
94 182 1
12 183 1
38 183 1
69 183 1
95 183 1
13 184 1
39 184 1
70 184 1
96 184 1
14 185 1
40 185 1
71 185 1
97 185 1
15 186 1
41 186 1
72 186 1
98 186 1
16 187 1
42 187 1
64 187 1
99 187 1
17 188 1
43 188 1
65 188 1
91 188 1
18 189 1
44 189 1
66 189 1
92 189 1
19 190 1
54 190 1
76 190 1
102 190 1
20 191 1
46 191 1
77 191 1
103 191 1
21 192 1
47 192 1
78 192 1
104 192 1
22 193 1
48 193 1
79 193 1
105 193 1
23 194 1
49 194 1
80 194 1
106 194 1
24 195 1
50 195 1
81 195 1
107 195 1
25 196 1
51 196 1
73 196 1
108 196 1
26 197 1
52 197 1
74 197 1
100 197 1
27 198 1
53 198 1
75 198 1
101 198 1
1 199 1
33 199 1
59 199 1
89 199 1
2 200 1
34 200 1
60 200 1
90 200 1
3 201 1
35 201 1
61 201 1
82 201 1
4 202 1
36 202 1
62 202 1
83 202 1
5 203 1
28 203 1
63 203 1
84 203 1
6 204 1
29 204 1
55 204 1
85 204 1
7 205 1
30 205 1
56 205 1
86 205 1
8 206 1
31 206 1
57 206 1
87 206 1
9 207 1
32 207 1
58 207 1
88 207 1
10 208 1
42 208 1
68 208 1
98 208 1
11 209 1
43 209 1
69 209 1
99 209 1
12 210 1
44 210 1
70 210 1
91 210 1
13 211 1
45 211 1
71 211 1
92 211 1
14 212 1
37 212 1
72 212 1
93 212 1
15 213 1
38 213 1
64 213 1
94 213 1
16 214 1
39 214 1
65 214 1
95 214 1
17 215 1
40 215 1
66 215 1
96 215 1
18 216 1
41 216 1
67 216 1
97 216 1
19 217 1
51 217 1
77 217 1
107 217 1
20 218 1
52 218 1
78 218 1
108 218 1
21 219 1
53 219 1
79 219 1
100 219 1
22 220 1
54 220 1
80 220 1
101 220 1
23 221 1
46 221 1
81 221 1
102 221 1
24 222 1
47 222 1
73 222 1
103 222 1
25 223 1
48 223 1
74 223 1
104 223 1
26 224 1
49 224 1
75 224 1
105 224 1
27 225 1
50 225 1
76 225 1
106 225 1
