%%MatrixMarket matrix coordinate integer general
228 475 1596
1 1 1
20 1 1
39 1 1
2 2 1
21 2 1
40 2 1
3 3 1
22 3 1
41 3 1
4 4 1
23 4 1
42 4 1
5 5 1
24 5 1
43 5 1
6 6 1
25 6 1
44 6 1
7 7 1
26 7 1
45 7 1
8 8 1
27 8 1
46 8 1
9 9 1
28 9 1
47 9 1
10 10 1
29 10 1
48 10 1
11 11 1
30 11 1
49 11 1
12 12 1
31 12 1
50 12 1
13 13 1
32 13 1
51 13 1
14 14 1
33 14 1
52 14 1
15 15 1
34 15 1
53 15 1
16 16 1
35 16 1
54 16 1
17 17 1
36 17 1
55 17 1
18 18 1
37 18 1
56 18 1
19 19 1
38 19 1
57 19 1
1 20 1
22 20 1
55 20 1
2 21 1
23 21 1
56 21 1
3 22 1
24 22 1
57 22 1
4 23 1
25 23 1
39 23 1
5 24 1
26 24 1
40 24 1
6 25 1
27 25 1
41 25 1
7 26 1
28 26 1
42 26 1
8 27 1
29 27 1
43 27 1
9 28 1
30 28 1
44 28 1
10 29 1
31 29 1
45 29 1
11 30 1
32 30 1
46 30 1
12 31 1
33 31 1
47 31 1
13 32 1
34 32 1
48 32 1
14 33 1
35 33 1
49 33 1
15 34 1
36 34 1
50 34 1
16 35 1
37 35 1
51 35 1
17 36 1
38 36 1
52 36 1
18 37 1
20 37 1
53 37 1
19 38 1
21 38 1
54 38 1
1 39 1
26 39 1
46 39 1
2 40 1
27 40 1
47 40 1
3 41 1
28 41 1
48 41 1
4 42 1
29 42 1
49 42 1
5 43 1
30 43 1
50 43 1
6 44 1
31 44 1
51 44 1
7 45 1
32 45 1
52 45 1
8 46 1
33 46 1
53 46 1
9 47 1
34 47 1
54 47 1
10 48 1
35 48 1
55 48 1
11 49 1
36 49 1
56 49 1
12 50 1
37 50 1
57 50 1
13 51 1
38 51 1
39 51 1
14 52 1
20 52 1
40 52 1
15 53 1
21 53 1
41 53 1
16 54 1
22 54 1
42 54 1
17 55 1
23 55 1
43 55 1
18 56 1
24 56 1
44 56 1
19 57 1
25 57 1
45 57 1
1 58 1
29 58 1
50 58 1
2 59 1
30 59 1
51 59 1
3 60 1
31 60 1
52 60 1
4 61 1
32 61 1
53 61 1
5 62 1
33 62 1
54 62 1
6 63 1
34 63 1
55 63 1
7 64 1
35 64 1
56 64 1
8 65 1
36 65 1
57 65 1
9 66 1
37 66 1
39 66 1
10 67 1
38 67 1
40 67 1
11 68 1
20 68 1
41 68 1
12 69 1
21 69 1
42 69 1
13 70 1
22 70 1
43 70 1
14 71 1
23 71 1
44 71 1
15 72 1
24 72 1
45 72 1
16 73 1
25 73 1
46 73 1
17 74 1
26 74 1
47 74 1
18 75 1
27 75 1
48 75 1
19 76 1
28 76 1
49 76 1
58 77 1
77 77 1
96 77 1
59 78 1
78 78 1
97 78 1
60 79 1
79 79 1
98 79 1
61 80 1
80 80 1
99 80 1
62 81 1
81 81 1
100 81 1
63 82 1
82 82 1
101 82 1
64 83 1
83 83 1
102 83 1
65 84 1
84 84 1
103 84 1
66 85 1
85 85 1
104 85 1
67 86 1
86 86 1
105 86 1
68 87 1
87 87 1
106 87 1
69 88 1
88 88 1
107 88 1
70 89 1
89 89 1
108 89 1
71 90 1
90 90 1
109 90 1
72 91 1
91 91 1
110 91 1
73 92 1
92 92 1
111 92 1
74 93 1
93 93 1
112 93 1
75 94 1
94 94 1
113 94 1
76 95 1
95 95 1
114 95 1
58 96 1
79 96 1
112 96 1
59 97 1
80 97 1
113 97 1
60 98 1
81 98 1
114 98 1
61 99 1
82 99 1
96 99 1
62 100 1
83 100 1
97 100 1
63 101 1
84 101 1
98 101 1
64 102 1
85 102 1
99 102 1
65 103 1
86 103 1
100 103 1
66 104 1
87 104 1
101 104 1
67 105 1
88 105 1
102 105 1
68 106 1
89 106 1
103 106 1
69 107 1
90 107 1
104 107 1
70 108 1
91 108 1
105 108 1
71 109 1
92 109 1
106 109 1
72 110 1
93 110 1
107 110 1
73 111 1
94 111 1
108 111 1
74 112 1
95 112 1
109 112 1
75 113 1
77 113 1
110 113 1
76 114 1
78 114 1
111 114 1
58 115 1
83 115 1
103 115 1
59 116 1
84 116 1
104 116 1
60 117 1
85 117 1
105 117 1
61 118 1
86 118 1
106 118 1
62 119 1
87 119 1
107 119 1
63 120 1
88 120 1
108 120 1
64 121 1
89 121 1
109 121 1
65 122 1
90 122 1
110 122 1
66 123 1
91 123 1
111 123 1
67 124 1
92 124 1
112 124 1
68 125 1
93 125 1
113 125 1
69 126 1
94 126 1
114 126 1
70 127 1
95 127 1
96 127 1
71 128 1
77 128 1
97 128 1
72 129 1
78 129 1
98 129 1
73 130 1
79 130 1
99 130 1
74 131 1
80 131 1
100 131 1
75 132 1
81 132 1
101 132 1
76 133 1
82 133 1
102 133 1
58 134 1
86 134 1
107 134 1
59 135 1
87 135 1
108 135 1
60 136 1
88 136 1
109 136 1
61 137 1
89 137 1
110 137 1
62 138 1
90 138 1
111 138 1
63 139 1
91 139 1
112 139 1
64 140 1
92 140 1
113 140 1
65 141 1
93 141 1
114 141 1
66 142 1
94 142 1
96 142 1
67 143 1
95 143 1
97 143 1
68 144 1
77 144 1
98 144 1
69 145 1
78 145 1
99 145 1
70 146 1
79 146 1
100 146 1
71 147 1
80 147 1
101 147 1
72 148 1
81 148 1
102 148 1
73 149 1
82 149 1
103 149 1
74 150 1
83 150 1
104 150 1
75 151 1
84 151 1
105 151 1
76 152 1
85 152 1
106 152 1
115 153 1
134 153 1
153 153 1
116 154 1
135 154 1
154 154 1
117 155 1
136 155 1
155 155 1
118 156 1
137 156 1
156 156 1
119 157 1
138 157 1
157 157 1
120 158 1
139 158 1
158 158 1
121 159 1
140 159 1
159 159 1
122 160 1
141 160 1
160 160 1
123 161 1
142 161 1
161 161 1
124 162 1
143 162 1
162 162 1
125 163 1
144 163 1
163 163 1
126 164 1
145 164 1
164 164 1
127 165 1
146 165 1
165 165 1
128 166 1
147 166 1
166 166 1
129 167 1
148 167 1
167 167 1
130 168 1
149 168 1
168 168 1
131 169 1
150 169 1
169 169 1
132 170 1
151 170 1
170 170 1
133 171 1
152 171 1
171 171 1
115 172 1
136 172 1
169 172 1
116 173 1
137 173 1
170 173 1
117 174 1
138 174 1
171 174 1
118 175 1
139 175 1
153 175 1
119 176 1
140 176 1
154 176 1
120 177 1
141 177 1
155 177 1
121 178 1
142 178 1
156 178 1
122 179 1
143 179 1
157 179 1
123 180 1
144 180 1
158 180 1
124 181 1
145 181 1
159 181 1
125 182 1
146 182 1
160 182 1
126 183 1
147 183 1
161 183 1
127 184 1
148 184 1
162 184 1
128 185 1
149 185 1
163 185 1
129 186 1
150 186 1
164 186 1
130 187 1
151 187 1
165 187 1
131 188 1
152 188 1
166 188 1
132 189 1
134 189 1
167 189 1
133 190 1
135 190 1
168 190 1
115 191 1
140 191 1
160 191 1
116 192 1
141 192 1
161 192 1
117 193 1
142 193 1
162 193 1
118 194 1
143 194 1
163 194 1
119 195 1
144 195 1
164 195 1
120 196 1
145 196 1
165 196 1
121 197 1
146 197 1
166 197 1
122 198 1
147 198 1
167 198 1
123 199 1
148 199 1
168 199 1
124 200 1
149 200 1
169 200 1
125 201 1
150 201 1
170 201 1
126 202 1
151 202 1
171 202 1
127 203 1
152 203 1
153 203 1
128 204 1
134 204 1
154 204 1
129 205 1
135 205 1
155 205 1
130 206 1
136 206 1
156 206 1
131 207 1
137 207 1
157 207 1
132 208 1
138 208 1
158 208 1
133 209 1
139 209 1
159 209 1
115 210 1
143 210 1
164 210 1
116 211 1
144 211 1
165 211 1
117 212 1
145 212 1
166 212 1
118 213 1
146 213 1
167 213 1
119 214 1
147 214 1
168 214 1
120 215 1
148 215 1
169 215 1
121 216 1
149 216 1
170 216 1
122 217 1
150 217 1
171 217 1
123 218 1
151 218 1
153 218 1
124 219 1
152 219 1
154 219 1
125 220 1
134 220 1
155 220 1
126 221 1
135 221 1
156 221 1
127 222 1
136 222 1
157 222 1
128 223 1
137 223 1
158 223 1
129 224 1
138 224 1
159 224 1
130 225 1
139 225 1
160 225 1
131 226 1
140 226 1
161 226 1
132 227 1
141 227 1
162 227 1
133 228 1
142 228 1
163 228 1
172 229 1
191 229 1
210 229 1
173 230 1
192 230 1
211 230 1
174 231 1
193 231 1
212 231 1
175 232 1
194 232 1
213 232 1
176 233 1
195 233 1
214 233 1
177 234 1
196 234 1
215 234 1
178 235 1
197 235 1
216 235 1
179 236 1
198 236 1
217 236 1
180 237 1
199 237 1
218 237 1
181 238 1
200 238 1
219 238 1
182 239 1
201 239 1
220 239 1
183 240 1
202 240 1
221 240 1
184 241 1
203 241 1
222 241 1
185 242 1
204 242 1
223 242 1
186 243 1
205 243 1
224 243 1
187 244 1
206 244 1
225 244 1
188 245 1
207 245 1
226 245 1
189 246 1
208 246 1
227 246 1
190 247 1
209 247 1
228 247 1
172 248 1
193 248 1
226 248 1
173 249 1
194 249 1
227 249 1
174 250 1
195 250 1
228 250 1
175 251 1
196 251 1
210 251 1
176 252 1
197 252 1
211 252 1
177 253 1
198 253 1
212 253 1
178 254 1
199 254 1
213 254 1
179 255 1
200 255 1
214 255 1
180 256 1
201 256 1
215 256 1
181 257 1
202 257 1
216 257 1
182 258 1
203 258 1
217 258 1
183 259 1
204 259 1
218 259 1
184 260 1
205 260 1
219 260 1
185 261 1
206 261 1
220 261 1
186 262 1
207 262 1
221 262 1
187 263 1
208 263 1
222 263 1
188 264 1
209 264 1
223 264 1
189 265 1
191 265 1
224 265 1
190 266 1
192 266 1
225 266 1
172 267 1
197 267 1
217 267 1
173 268 1
198 268 1
218 268 1
174 269 1
199 269 1
219 269 1
175 270 1
200 270 1
220 270 1
176 271 1
201 271 1
221 271 1
177 272 1
202 272 1
222 272 1
178 273 1
203 273 1
223 273 1
179 274 1
204 274 1
224 274 1
180 275 1
205 275 1
225 275 1
181 276 1
206 276 1
226 276 1
182 277 1
207 277 1
227 277 1
183 278 1
208 278 1
228 278 1
184 279 1
209 279 1
210 279 1
185 280 1
191 280 1
211 280 1
186 281 1
192 281 1
212 281 1
187 282 1
193 282 1
213 282 1
188 283 1
194 283 1
214 283 1
189 284 1
195 284 1
215 284 1
190 285 1
196 285 1
216 285 1
172 286 1
200 286 1
221 286 1
173 287 1
201 287 1
222 287 1
174 288 1
202 288 1
223 288 1
175 289 1
203 289 1
224 289 1
176 290 1
204 290 1
225 290 1
177 291 1
205 291 1
226 291 1
178 292 1
206 292 1
227 292 1
179 293 1
207 293 1
228 293 1
180 294 1
208 294 1
210 294 1
181 295 1
209 295 1
211 295 1
182 296 1
191 296 1
212 296 1
183 297 1
192 297 1
213 297 1
184 298 1
193 298 1
214 298 1
185 299 1
194 299 1
215 299 1
186 300 1
195 300 1
216 300 1
187 301 1
196 301 1
217 301 1
188 302 1
197 302 1
218 302 1
189 303 1
198 303 1
219 303 1
190 304 1
199 304 1
220 304 1
1 305 1
58 305 1
115 305 1
172 305 1
2 306 1
59 306 1
116 306 1
173 306 1
3 307 1
60 307 1
117 307 1
174 307 1
4 308 1
61 308 1
118 308 1
175 308 1
5 309 1
62 309 1
119 309 1
176 309 1
6 310 1
63 310 1
120 310 1
177 310 1
7 311 1
64 311 1
121 311 1
178 311 1
8 312 1
65 312 1
122 312 1
179 312 1
9 313 1
66 313 1
123 313 1
180 313 1
10 314 1
67 314 1
124 314 1
181 314 1
11 315 1
68 315 1
125 315 1
182 315 1
12 316 1
69 316 1
126 316 1
183 316 1
13 317 1
70 317 1
127 317 1
184 317 1
14 318 1
71 318 1
128 318 1
185 318 1
15 319 1
72 319 1
129 319 1
186 319 1
16 320 1
73 320 1
130 320 1
187 320 1
17 321 1
74 321 1
131 321 1
188 321 1
18 322 1
75 322 1
132 322 1
189 322 1
19 323 1
76 323 1
133 323 1
190 323 1
20 324 1
77 324 1
134 324 1
191 324 1
21 325 1
78 325 1
135 325 1
192 325 1
22 326 1
79 326 1
136 326 1
193 326 1
23 327 1
80 327 1
137 327 1
194 327 1
24 328 1
81 328 1
138 328 1
195 328 1
25 329 1
82 329 1
139 329 1
196 329 1
26 330 1
83 330 1
140 330 1
197 330 1
27 331 1
84 331 1
141 331 1
198 331 1
28 332 1
85 332 1
142 332 1
199 332 1
29 333 1
86 333 1
143 333 1
200 333 1
30 334 1
87 334 1
144 334 1
201 334 1
31 335 1
88 335 1
145 335 1
202 335 1
32 336 1
89 336 1
146 336 1
203 336 1
33 337 1
90 337 1
147 337 1
204 337 1
34 338 1
91 338 1
148 338 1
205 338 1
35 339 1
92 339 1
149 339 1
206 339 1
36 340 1
93 340 1
150 340 1
207 340 1
37 341 1
94 341 1
151 341 1
208 341 1
38 342 1
95 342 1
152 342 1
209 342 1
39 343 1
96 343 1
153 343 1
210 343 1
40 344 1
97 344 1
154 344 1
211 344 1
41 345 1
98 345 1
155 345 1
212 345 1
42 346 1
99 346 1
156 346 1
213 346 1
43 347 1
100 347 1
157 347 1
214 347 1
44 348 1
101 348 1
158 348 1
215 348 1
45 349 1
102 349 1
159 349 1
216 349 1
46 350 1
103 350 1
160 350 1
217 350 1
47 351 1
104 351 1
161 351 1
218 351 1
48 352 1
105 352 1
162 352 1
219 352 1
49 353 1
106 353 1
163 353 1
220 353 1
50 354 1
107 354 1
164 354 1
221 354 1
51 355 1
108 355 1
165 355 1
222 355 1
52 356 1
109 356 1
166 356 1
223 356 1
53 357 1
110 357 1
167 357 1
224 357 1
54 358 1
111 358 1
168 358 1
225 358 1
55 359 1
112 359 1
169 359 1
226 359 1
56 360 1
113 360 1
170 360 1
227 360 1
57 361 1
114 361 1
171 361 1
228 361 1
1 362 1
75 362 1
128 362 1
182 362 1
2 363 1
76 363 1
129 363 1
183 363 1
3 364 1
58 364 1
130 364 1
184 364 1
4 365 1
59 365 1
131 365 1
185 365 1
5 366 1
60 366 1
132 366 1
186 366 1
6 367 1
61 367 1
133 367 1
187 367 1
7 368 1
62 368 1
115 368 1
188 368 1
8 369 1
63 369 1
116 369 1
189 369 1
9 370 1
64 370 1
117 370 1
190 370 1
10 371 1
65 371 1
118 371 1
172 371 1
11 372 1
66 372 1
119 372 1
173 372 1
12 373 1
67 373 1
120 373 1
174 373 1
13 374 1
68 374 1
121 374 1
175 374 1
14 375 1
69 375 1
122 375 1
176 375 1
15 376 1
70 376 1
123 376 1
177 376 1
16 377 1
71 377 1
124 377 1
178 377 1
17 378 1
72 378 1
125 378 1
179 378 1
18 379 1
73 379 1
126 379 1
180 379 1
19 380 1
74 380 1
127 380 1
181 380 1
20 381 1
94 381 1
147 381 1
201 381 1
21 382 1
95 382 1
148 382 1
202 382 1
22 383 1
77 383 1
149 383 1
203 383 1
23 384 1
78 384 1
150 384 1
204 384 1
24 385 1
79 385 1
151 385 1
205 385 1
25 386 1
80 386 1
152 386 1
206 386 1
26 387 1
81 387 1
134 387 1
207 387 1
27 388 1
82 388 1
135 388 1
208 388 1
28 389 1
83 389 1
136 389 1
209 389 1
29 390 1
84 390 1
137 390 1
191 390 1
30 391 1
85 391 1
138 391 1
192 391 1
31 392 1
86 392 1
139 392 1
193 392 1
32 393 1
87 393 1
140 393 1
194 393 1
33 394 1
88 394 1
141 394 1
195 394 1
34 395 1
89 395 1
142 395 1
196 395 1
35 396 1
90 396 1
143 396 1
197 396 1
36 397 1
91 397 1
144 397 1
198 397 1
37 398 1
92 398 1
145 398 1
199 398 1
38 399 1
93 399 1
146 399 1
200 399 1
39 400 1
113 400 1
166 400 1
220 400 1
40 401 1
114 401 1
167 401 1
221 401 1
41 402 1
96 402 1
168 402 1
222 402 1
42 403 1
97 403 1
169 403 1
223 403 1
43 404 1
98 404 1
170 404 1
224 404 1
44 405 1
99 405 1
171 405 1
225 405 1
45 406 1
100 406 1
153 406 1
226 406 1
46 407 1
101 407 1
154 407 1
227 407 1
47 408 1
102 408 1
155 408 1
228 408 1
48 409 1
103 409 1
156 409 1
210 409 1
49 410 1
104 410 1
157 410 1
211 410 1
50 411 1
105 411 1
158 411 1
212 411 1
51 412 1
106 412 1
159 412 1
213 412 1
52 413 1
107 413 1
160 413 1
214 413 1
53 414 1
108 414 1
161 414 1
215 414 1
54 415 1
109 415 1
162 415 1
216 415 1
55 416 1
110 416 1
163 416 1
217 416 1
56 417 1
111 417 1
164 417 1
218 417 1
57 418 1
112 418 1
165 418 1
219 418 1
1 419 1
61 419 1
127 419 1
180 419 1
2 420 1
62 420 1
128 420 1
181 420 1
3 421 1
63 421 1
129 421 1
182 421 1
4 422 1
64 422 1
130 422 1
183 422 1
5 423 1
65 423 1
131 423 1
184 423 1
6 424 1
66 424 1
132 424 1
185 424 1
7 425 1
67 425 1
133 425 1
186 425 1
8 426 1
68 426 1
115 426 1
187 426 1
9 427 1
69 427 1
116 427 1
188 427 1
10 428 1
70 428 1
117 428 1
189 428 1
11 429 1
71 429 1
118 429 1
190 429 1
12 430 1
72 430 1
119 430 1
172 430 1
13 431 1
73 431 1
120 431 1
173 431 1
14 432 1
74 432 1
121 432 1
174 432 1
15 433 1
75 433 1
122 433 1
175 433 1
16 434 1
76 434 1
123 434 1
176 434 1
17 435 1
58 435 1
124 435 1
177 435 1
18 436 1
59 436 1
125 436 1
178 436 1
19 437 1
60 437 1
126 437 1
179 437 1
20 438 1
80 438 1
146 438 1
199 438 1
21 439 1
81 439 1
147 439 1
200 439 1
22 440 1
82 440 1
148 440 1
201 440 1
23 441 1
83 441 1
149 441 1
202 441 1
24 442 1
84 442 1
150 442 1
203 442 1
25 443 1
85 443 1
151 443 1
204 443 1
26 444 1
86 444 1
152 444 1
205 444 1
27 445 1
87 445 1
134 445 1
206 445 1
28 446 1
88 446 1
135 446 1
207 446 1
29 447 1
89 447 1
136 447 1
208 447 1
30 448 1
90 448 1
137 448 1
209 448 1
31 449 1
91 449 1
138 449 1
191 449 1
32 450 1
92 450 1
139 450 1
192 450 1
33 451 1
93 451 1
140 451 1
193 451 1
34 452 1
94 452 1
141 452 1
194 452 1
35 453 1
95 453 1
142 453 1
195 453 1
36 454 1
77 454 1
143 454 1
196 454 1
37 455 1
78 455 1
144 455 1
197 455 1
38 456 1
79 456 1
145 456 1
198 456 1
39 457 1
99 457 1
165 457 1
218 457 1
40 458 1
100 458 1
166 458 1
219 458 1
41 459 1
101 459 1
167 459 1
220 459 1
42 460 1
102 460 1
168 460 1
221 460 1
43 461 1
103 461 1
169 461 1
222 461 1
44 462 1
104 462 1
170 462 1
223 462 1
45 463 1
105 463 1
171 463 1
224 463 1
46 464 1
106 464 1
153 464 1
225 464 1
47 465 1
107 465 1
154 465 1
226 465 1
48 466 1
108 466 1
155 466 1
227 466 1
49 467 1
109 467 1
156 467 1
228 467 1
50 468 1
110 468 1
157 468 1
210 468 1
51 469 1
111 469 1
158 469 1
211 469 1
52 470 1
112 470 1
159 470 1
212 470 1
53 471 1
113 471 1
160 471 1
213 471 1
54 472 1
114 472 1
161 472 1
214 472 1
55 473 1
96 473 1
162 473 1
215 473 1
56 474 1
97 474 1
163 474 1
216 474 1
57 475 1
98 475 1
164 475 1
217 475 1
