%%MatrixMarket matrix coordinate integer general
31 475 1224
2 95 1
10 96 1
4 97 1
3 98 1
3 99 1
4 99 1
10 99 1
2 100 1
3 100 1
4 100 1
5 100 1
6 100 1
10 100 1
3 101 1
4 101 1
5 101 1
6 102 1
10 103 1
5 104 1
4 105 1
5 106 1
6 106 1
10 106 1
2 107 1
3 107 1
5 108 1
2 109 1
5 109 1
6 109 1
10 109 1
2 110 1
3 110 1
4 111 1
2 112 1
3 112 1
2 113 1
3 113 1
4 113 1
5 113 1
2 114 1
4 114 1
6 114 1
10 114 1
1 115 1
3 115 1
6 115 1
10 115 1
1 116 1
3 116 1
4 116 1
5 116 1
1 117 1
5 117 1
1 118 1
2 118 1
10 118 1
1 119 1
3 119 1
1 120 1
3 120 1
4 120 1
5 120 1
1 121 1
2 121 1
5 121 1
1 122 1
3 122 1
4 122 1
5 122 1
6 122 1
10 122 1
1 123 1
5 123 1
1 124 1
10 124 1
1 125 1
2 125 1
4 125 1
5 125 1
6 125 1
1 126 1
2 126 1
4 126 1
5 126 1
6 126 1
1 127 1
3 127 1
4 127 1
10 127 1
1 128 1
2 128 1
3 128 1
5 128 1
6 128 1
1 129 1
2 129 1
3 129 1
5 129 1
10 129 1
1 130 1
3 130 1
4 130 1
5 130 1
1 131 1
3 131 1
4 131 1
5 131 1
1 132 1
3 132 1
5 132 1
10 132 1
1 133 1
4 133 1
5 133 1
10 133 1
1 134 1
2 134 1
1 135 1
3 135 1
5 135 1
1 136 1
3 136 1
5 136 1
1 137 1
2 137 1
6 137 1
10 137 1
1 138 1
2 138 1
4 138 1
5 138 1
6 138 1
10 138 1
1 139 1
1 140 1
2 140 1
5 140 1
6 140 1
1 141 1
3 141 1
4 141 1
5 141 1
6 141 1
1 142 1
1 143 1
4 143 1
10 143 1
1 144 1
2 144 1
4 144 1
10 144 1
1 145 1
3 145 1
4 145 1
5 145 1
6 145 1
1 146 1
3 146 1
4 146 1
5 146 1
10 146 1
1 147 1
3 147 1
10 147 1
1 148 1
5 148 1
10 148 1
1 149 1
3 149 1
5 149 1
1 150 1
2 150 1
4 150 1
5 150 1
1 151 1
1 152 1
5 152 1
6 152 1
9 153 1
8 154 1
7 155 1
15 156 1
12 157 1
11 158 1
16 159 1
13 160 1
19 161 1
20 162 1
17 163 1
18 164 1
14 165 1
22 166 1
23 167 1
26 168 1
25 169 1
21 170 1
24 171 1
27 172 1
2 173 1
6 173 1
7 173 1
8 173 1
9 173 1
10 173 1
11 173 1
13 173 1
14 173 1
17 173 1
21 173 1
24 173 1
25 173 1
27 173 1
2 174 1
5 174 1
6 174 1
11 174 1
13 174 1
14 174 1
15 174 1
16 174 1
17 174 1
18 174 1
19 174 1
22 174 1
25 174 1
27 174 1
3 175 1
7 175 1
8 175 1
9 175 1
10 175 1
11 175 1
12 175 1
16 175 1
17 175 1
18 175 1
19 175 1
20 175 1
22 175 1
23 175 1
24 175 1
25 175 1
27 175 1
2 176 1
4 176 1
5 176 1
15 176 1
16 176 1
18 176 1
20 176 1
23 176 1
24 176 1
25 176 1
26 176 1
27 176 1
3 177 1
4 177 1
5 177 1
6 177 1
7 177 1
8 177 1
11 177 1
12 177 1
24 177 1
26 177 1
27 177 1
3 178 1
5 178 1
8 178 1
13 178 1
14 178 1
15 178 1
16 178 1
17 178 1
21 178 1
24 178 1
27 178 1
2 179 1
3 179 1
6 179 1
8 179 1
11 179 1
12 179 1
14 179 1
17 179 1
18 179 1
19 179 1
21 179 1
22 179 1
25 179 1
27 179 1
2 180 1
3 180 1
6 180 1
8 180 1
9 180 1
13 180 1
16 180 1
17 180 1
18 180 1
20 180 1
22 180 1
23 180 1
25 180 1
27 180 1
4 181 1
6 181 1
9 181 1
11 181 1
18 181 1
19 181 1
23 181 1
24 181 1
25 181 1
26 181 1
27 181 1
2 182 1
5 182 1
6 182 1
7 182 1
11 182 1
13 182 1
16 182 1
17 182 1
20 182 1
24 182 1
26 182 1
27 182 1
4 183 1
5 183 1
6 183 1
7 183 1
8 183 1
10 183 1
11 183 1
14 183 1
15 183 1
16 183 1
18 183 1
19 183 1
21 183 1
24 183 1
27 183 1
4 184 1
5 184 1
6 184 1
8 184 1
10 184 1
11 184 1
12 184 1
15 184 1
16 184 1
17 184 1
20 184 1
21 184 1
22 184 1
25 184 1
27 184 1
2 185 1
5 185 1
6 185 1
8 185 1
9 185 1
12 185 1
14 185 1
16 185 1
18 185 1
23 185 1
25 185 1
27 185 1
9 186 1
17 186 1
22 186 1
24 186 1
25 186 1
26 186 1
27 186 1
3 187 1
4 187 1
5 187 1
6 187 1
7 187 1
11 187 1
13 187 1
14 187 1
17 187 1
18 187 1
23 187 1
24 187 1
27 187 1
2 188 1
5 188 1
6 188 1
7 188 1
8 188 1
11 188 1
13 188 1
15 188 1
16 188 1
17 188 1
18 188 1
19 188 1
21 188 1
22 188 1
24 188 1
25 188 1
26 188 1
27 188 1
2 189 1
5 189 1
6 189 1
8 189 1
11 189 1
12 189 1
15 189 1
16 189 1
17 189 1
18 189 1
19 189 1
20 189 1
23 189 1
27 189 1
3 190 1
8 190 1
9 190 1
10 190 1
12 190 1
16 190 1
18 190 1
20 190 1
21 190 1
24 190 1
25 190 1
26 190 1
27 190 1
2 191 1
6 191 1
7 191 1
8 191 1
10 191 1
11 191 1
14 191 1
16 191 1
20 191 1
21 191 1
23 191 1
25 191 1
26 191 1
28 191 1
28 192 1
3 193 1
7 193 1
10 193 1
13 193 1
15 193 1
16 193 1
17 193 1
21 193 1
22 193 1
24 193 1
25 193 1
26 193 1
28 193 1
2 194 1
6 194 1
7 194 1
9 194 1
10 194 1
12 194 1
16 194 1
17 194 1
18 194 1
19 194 1
22 194 1
23 194 1
26 194 1
28 194 1
3 195 1
7 195 1
8 195 1
10 195 1
11 195 1
14 195 1
16 195 1
17 195 1
18 195 1
20 195 1
21 195 1
22 195 1
23 195 1
24 195 1
28 195 1
2 196 1
3 196 1
4 196 1
5 196 1
9 196 1
10 196 1
14 196 1
18 196 1
21 196 1
23 196 1
25 196 1
28 196 1
3 197 1
7 197 1
8 197 1
10 197 1
13 197 1
14 197 1
15 197 1
16 197 1
17 197 1
25 197 1
28 197 1
3 198 1
5 198 1
12 198 1
16 198 1
17 198 1
18 198 1
19 198 1
24 198 1
25 198 1
26 198 1
28 198 1
2 199 1
4 199 1
5 199 1
7 199 1
9 199 1
11 199 1
14 199 1
15 199 1
16 199 1
17 199 1
18 199 1
20 199 1
22 199 1
24 199 1
26 199 1
28 199 1
2 200 1
6 200 1
7 200 1
8 200 1
9 200 1
10 200 1
12 200 1
14 200 1
18 200 1
21 200 1
23 200 1
24 200 1
26 200 1
28 200 1
2 201 1
5 201 1
6 201 1
8 201 1
9 201 1
11 201 1
13 201 1
14 201 1
16 201 1
17 201 1
21 201 1
28 201 1
8 202 1
15 202 1
17 202 1
18 202 1
19 202 1
21 202 1
25 202 1
26 202 1
28 202 1
4 203 1
5 203 1
6 203 1
10 203 1
12 203 1
13 203 1
14 203 1
15 203 1
16 203 1
17 203 1
18 203 1
20 203 1
22 203 1
26 203 1
28 203 1
5 204 1
7 204 1
10 204 1
11 204 1
12 204 1
14 204 1
15 204 1
16 204 1
18 204 1
19 204 1
21 204 1
23 204 1
24 204 1
26 204 1
28 204 1
3 205 1
4 205 1
5 205 1
6 205 1
7 205 1
9 205 1
11 205 1
12 205 1
14 205 1
17 205 1
20 205 1
21 205 1
28 205 1
3 206 1
4 206 1
6 206 1
7 206 1
8 206 1
10 206 1
11 206 1
13 206 1
18 206 1
21 206 1
25 206 1
26 206 1
28 206 1
2 207 1
4 207 1
10 207 1
13 207 1
14 207 1
17 207 1
19 207 1
22 207 1
26 207 1
28 207 1
2 208 1
3 208 1
4 208 1
7 208 1
13 208 1
15 208 1
16 208 1
17 208 1
18 208 1
19 208 1
20 208 1
21 208 1
23 208 1
24 208 1
26 208 1
28 208 1
3 209 1
5 209 1
7 209 1
9 209 1
12 209 1
14 209 1
16 209 1
18 209 1
19 209 1
20 209 1
21 209 1
22 209 1
28 209 1
3 210 1
7 210 1
8 210 1
9 210 1
10 210 1
11 210 1
14 210 1
16 210 1
20 210 1
21 210 1
23 210 1
25 210 1
26 210 1
27 210 1
28 210 1
2 211 1
6 211 1
7 211 1
9 211 1
10 211 1
11 211 1
13 211 1
14 211 1
17 211 1
21 211 1
24 211 1
25 211 1
27 211 1
28 211 1
2 212 1
3 212 1
5 212 1
6 212 1
10 212 1
11 212 1
14 212 1
18 212 1
19 212 1
21 212 1
24 212 1
26 212 1
27 212 1
28 212 1
2 213 1
3 213 1
6 213 1
8 213 1
11 213 1
15 213 1
20 213 1
24 213 1
25 213 1
26 213 1
27 213 1
28 213 1
2 214 1
3 214 1
4 214 1
5 214 1
7 214 1
8 214 1
10 214 1
11 214 1
12 214 1
14 214 1
15 214 1
17 214 1
21 214 1
22 214 1
25 214 1
26 214 1
27 214 1
28 214 1
2 215 1
6 215 1
7 215 1
8 215 1
9 215 1
10 215 1
12 215 1
14 215 1
18 215 1
21 215 1
23 215 1
24 215 1
25 215 1
26 215 1
27 215 1
28 215 1
5 216 1
7 216 1
10 216 1
16 216 1
21 216 1
24 216 1
25 216 1
27 216 1
28 216 1
2 217 1
5 217 1
6 217 1
8 217 1
11 217 1
13 217 1
14 217 1
16 217 1
21 217 1
22 217 1
24 217 1
26 217 1
27 217 1
28 217 1
3 218 1
4 218 1
5 218 1
6 218 1
7 218 1
8 218 1
11 218 1
13 218 1
14 218 1
15 218 1
19 218 1
23 218 1
24 218 1
25 218 1
26 218 1
27 218 1
28 218 1
2 219 1
4 219 1
7 219 1
8 219 1
10 219 1
11 219 1
12 219 1
14 219 1
19 219 1
20 219 1
21 219 1
25 219 1
27 219 1
28 219 1
7 220 1
8 220 1
9 220 1
14 220 1
17 220 1
20 220 1
21 220 1
24 220 1
26 220 1
27 220 1
28 220 1
4 221 1
5 221 1
6 221 1
7 221 1
10 221 1
11 221 1
14 221 1
16 221 1
17 221 1
18 221 1
24 221 1
25 221 1
26 221 1
27 221 1
28 221 1
3 222 1
4 222 1
6 222 1
8 222 1
10 222 1
11 222 1
13 222 1
18 222 1
21 222 1
25 222 1
26 222 1
27 222 1
28 222 1
4 223 1
6 223 1
7 223 1
8 223 1
9 223 1
11 223 1
15 223 1
19 223 1
21 223 1
22 223 1
24 223 1
25 223 1
26 223 1
27 223 1
28 223 1
3 224 1
4 224 1
5 224 1
6 224 1
7 224 1
11 224 1
12 224 1
14 224 1
20 224 1
21 224 1
22 224 1
23 224 1
24 224 1
25 224 1
26 224 1
27 224 1
28 224 1
5 225 1
8 225 1
10 225 1
14 225 1
17 225 1
21 225 1
23 225 1
24 225 1
25 225 1
27 225 1
28 225 1
4 226 1
5 226 1
6 226 1
7 226 1
8 226 1
10 226 1
11 226 1
14 226 1
15 226 1
16 226 1
18 226 1
21 226 1
24 226 1
27 226 1
28 226 1
3 227 1
4 227 1
5 227 1
6 227 1
7 227 1
8 227 1
11 227 1
12 227 1
13 227 1
24 227 1
26 227 1
27 227 1
28 227 1
5 228 1
7 228 1
8 228 1
10 228 1
14 228 1
19 228 1
22 228 1
25 228 1
26 228 1
27 228 1
28 228 1
3 229 1
4 229 1
5 229 1
6 229 1
30 229 1
30 230 1
29 231 1
2 232 1
4 232 1
10 232 1
30 232 1
2 233 1
4 233 1
5 233 1
29 233 1
3 234 1
4 234 1
5 234 1
6 234 1
30 234 1
2 235 1
3 235 1
5 235 1
6 235 1
10 235 1
29 235 1
2 236 1
3 236 1
5 236 1
6 236 1
10 236 1
30 236 1
3 237 1
4 237 1
5 237 1
6 237 1
30 237 1
2 238 1
3 238 1
4 238 1
29 238 1
4 239 1
5 239 1
6 239 1
10 239 1
30 239 1
4 240 1
6 240 1
30 240 1
3 241 1
4 241 1
6 241 1
10 241 1
29 241 1
2 242 1
4 242 1
5 242 1
29 242 1
4 243 1
5 243 1
6 243 1
10 243 1
29 243 1
2 244 1
3 244 1
5 244 1
6 244 1
10 244 1
30 244 1
3 245 1
4 245 1
5 245 1
6 245 1
29 245 1
2 246 1
5 246 1
6 246 1
29 246 1
2 247 1
6 247 1
10 247 1
30 247 1
2 248 1
3 248 1
6 248 1
31 248 1
2 249 1
3 249 1
5 249 1
6 249 1
10 249 1
31 249 1
31 250 1
2 251 1
3 251 1
4 251 1
5 251 1
10 251 1
29 251 1
30 251 1
31 251 1
2 252 1
3 252 1
5 252 1
6 252 1
10 252 1
31 252 1
31 253 1
3 254 1
4 254 1
6 254 1
10 254 1
29 254 1
30 254 1
31 254 1
2 255 1
3 255 1
6 255 1
29 255 1
30 255 1
31 255 1
2 256 1
3 256 1
6 256 1
29 256 1
30 256 1
31 256 1
3 257 1
5 257 1
31 257 1
2 258 1
3 258 1
5 258 1
6 258 1
10 258 1
29 258 1
30 258 1
31 258 1
2 259 1
4 259 1
10 259 1
31 259 1
2 260 1
3 260 1
4 260 1
31 260 1
3 261 1
4 261 1
6 261 1
10 261 1
29 261 1
30 261 1
31 261 1
4 262 1
5 262 1
6 262 1
10 262 1
31 262 1
5 263 1
10 263 1
29 263 1
30 263 1
31 263 1
29 264 1
30 264 1
31 264 1
4 265 1
6 265 1
31 265 1
29 266 1
30 266 1
31 266 1
29 267 1
31 267 1
2 268 1
3 268 1
5 268 1
6 268 1
10 268 1
30 268 1
31 268 1
29 269 1
31 269 1
3 270 1
5 270 1
29 270 1
31 270 1
3 271 1
4 271 1
6 271 1
10 271 1
29 271 1
31 271 1
3 272 1
4 272 1
5 272 1
6 272 1
30 272 1
31 272 1
2 273 1
4 273 1
5 273 1
30 273 1
31 273 1
5 274 1
10 274 1
29 274 1
31 274 1
2 275 1
3 275 1
5 275 1
6 275 1
10 275 1
29 275 1
31 275 1
2 276 1
4 276 1
5 276 1
29 276 1
31 276 1
3 277 1
10 277 1
29 277 1
31 277 1
2 278 1
6 278 1
10 278 1
30 278 1
31 278 1
2 279 1
6 279 1
10 279 1
29 279 1
31 279 1
2 280 1
3 280 1
5 280 1
6 280 1
10 280 1
30 280 1
31 280 1
29 281 1
31 281 1
2 282 1
3 282 1
6 282 1
29 282 1
31 282 1
3 283 1
4 283 1
5 283 1
6 283 1
30 283 1
31 283 1
2 284 1
4 284 1
5 284 1
29 284 1
31 284 1
2 285 1
6 285 1
10 285 1
29 285 1
31 285 1
3 286 1
4 286 1
5 286 1
6 286 1
29 286 1
30 286 1
2 305 1
3 305 1
6 305 1
2 324 1
6 324 1
10 324 1
2 362 1
4 362 1
10 362 1
2 381 1
5 381 1
6 381 1
3 419 1
4 419 1
6 419 1
10 419 1
5 438 1
10 438 1
