%%MatrixMarket matrix coordinate integer general
31 475 2622
2 1 1
3 1 1
4 1 1
7 1 1
9 1 1
10 1 1
11 1 1
12 1 1
16 1 1
19 1 1
20 1 1
21 1 1
25 1 1
27 1 1
28 1 1
2 2 1
5 2 1
7 2 1
8 2 1
12 2 1
13 2 1
15 2 1
17 2 1
19 2 1
24 2 1
25 2 1
27 2 1
30 2 1
2 3 1
3 3 1
4 3 1
5 3 1
9 3 1
10 3 1
15 3 1
16 3 1
18 3 1
25 3 1
27 3 1
28 3 1
29 3 1
2 4 1
5 4 1
6 4 1
7 4 1
8 4 1
10 4 1
11 4 1
13 4 1
14 4 1
16 4 1
19 4 1
20 4 1
25 4 1
28 4 1
1 5 1
2 5 1
3 5 1
5 5 1
10 5 1
11 5 1
12 5 1
13 5 1
15 5 1
17 5 1
22 5 1
25 5 1
27 5 1
28 5 1
2 6 1
3 6 1
6 6 1
7 6 1
18 6 1
20 6 1
23 6 1
25 6 1
27 6 1
2 7 1
3 7 1
4 7 1
5 7 1
7 7 1
11 7 1
12 7 1
14 7 1
15 7 1
16 7 1
17 7 1
19 7 1
20 7 1
25 7 1
26 7 1
27 7 1
1 8 1
2 8 1
4 8 1
6 8 1
7 8 1
10 8 1
13 8 1
15 8 1
17 8 1
18 8 1
19 8 1
22 8 1
28 8 1
2 9 1
5 9 1
7 9 1
10 9 1
11 9 1
14 9 1
15 9 1
16 9 1
18 9 1
21 9 1
23 9 1
25 9 1
28 9 1
2 10 1
3 10 1
7 10 1
10 10 1
11 10 1
13 10 1
14 10 1
15 10 1
19 10 1
20 10 1
22 10 1
24 10 1
25 10 1
26 10 1
27 10 1
28 10 1
2 11 1
3 11 1
5 11 1
7 11 1
9 11 1
11 11 1
15 11 1
17 11 1
22 11 1
23 11 1
27 11 1
28 11 1
2 12 1
3 12 1
4 12 1
5 12 1
6 12 1
7 12 1
8 12 1
11 12 1
15 12 1
18 12 1
19 12 1
20 12 1
21 12 1
23 12 1
25 12 1
26 12 1
27 12 1
28 12 1
1 13 1
2 13 1
4 13 1
5 13 1
6 13 1
10 13 1
11 13 1
14 13 1
15 13 1
17 13 1
19 13 1
24 13 1
26 13 1
27 13 1
2 14 1
7 14 1
9 14 1
10 14 1
11 14 1
18 14 1
19 14 1
21 14 1
22 14 1
28 14 1
2 15 1
3 15 1
7 15 1
8 15 1
10 15 1
11 15 1
12 15 1
14 15 1
15 15 1
19 15 1
21 15 1
23 15 1
24 15 1
25 15 1
28 15 1
2 16 1
3 16 1
5 16 1
9 16 1
10 16 1
15 16 1
19 16 1
22 16 1
24 16 1
25 16 1
26 16 1
1 17 1
2 17 1
3 17 1
5 17 1
6 17 1
7 17 1
8 17 1
9 17 1
11 17 1
16 17 1
19 17 1
23 17 1
1 18 1
2 18 1
3 18 1
4 18 1
5 18 1
6 18 1
8 18 1
10 18 1
11 18 1
12 18 1
13 18 1
15 18 1
19 18 1
21 18 1
25 18 1
26 18 1
27 18 1
28 18 1
2 19 1
24 19 1
10 20 1
27 20 1
4 21 1
3 22 1
31 22 1
6 26 1
5 28 1
28 40 1
9 59 1
12 59 1
13 59 1
15 59 1
16 59 1
19 59 1
22 59 1
26 59 1
27 59 1
29 59 1
8 60 1
9 60 1
11 60 1
15 60 1
16 60 1
20 60 1
22 60 1
23 60 1
25 60 1
26 60 1
29 60 1
7 61 1
8 61 1
9 61 1
15 61 1
17 61 1
19 61 1
21 61 1
22 61 1
23 61 1
25 61 1
27 61 1
28 61 1
29 61 1
30 61 1
31 61 1
7 62 1
8 62 1
9 62 1
13 62 1
16 62 1
18 62 1
19 62 1
20 62 1
21 62 1
22 62 1
23 62 1
24 62 1
30 62 1
7 63 1
8 63 1
12 63 1
14 63 1
16 63 1
17 63 1
20 63 1
22 63 1
23 63 1
24 63 1
31 63 1
7 64 1
11 64 1
12 64 1
16 64 1
17 64 1
18 64 1
19 64 1
23 64 1
29 64 1
30 64 1
31 64 1
9 65 1
11 65 1
12 65 1
14 65 1
18 65 1
19 65 1
20 65 1
22 65 1
30 65 1
8 66 1
9 66 1
11 66 1
12 66 1
13 66 1
14 66 1
15 66 1
17 66 1
19 66 1
20 66 1
23 66 1
26 66 1
27 66 1
28 66 1
30 66 1
31 66 1
7 67 1
8 67 1
9 67 1
11 67 1
13 67 1
15 67 1
17 67 1
18 67 1
20 67 1
25 67 1
27 67 1
28 67 1
7 68 1
8 68 1
9 68 1
13 68 1
14 68 1
17 68 1
18 68 1
21 68 1
22 68 1
26 68 1
27 68 1
29 68 1
7 69 1
8 69 1
9 69 1
12 69 1
13 69 1
14 69 1
16 69 1
18 69 1
23 69 1
24 69 1
25 69 1
26 69 1
27 69 1
28 69 1
29 69 1
30 69 1
31 69 1
7 70 1
8 70 1
11 70 1
12 70 1
14 70 1
16 70 1
21 70 1
25 70 1
7 71 1
9 71 1
11 71 1
12 71 1
19 71 1
21 71 1
24 71 1
26 71 1
28 71 1
29 71 1
31 71 1
8 72 1
11 72 1
12 72 1
13 72 1
19 72 1
20 72 1
22 72 1
24 72 1
25 72 1
26 72 1
28 72 1
29 72 1
30 72 1
31 72 1
7 73 1
11 73 1
12 73 1
13 73 1
15 73 1
17 73 1
20 73 1
21 73 1
22 73 1
23 73 1
25 73 1
26 73 1
27 73 1
31 73 1
9 74 1
11 74 1
13 74 1
17 74 1
18 74 1
21 74 1
22 74 1
23 74 1
24 74 1
25 74 1
27 74 1
28 74 1
29 74 1
30 74 1
1 75 1
8 75 1
12 75 1
13 75 1
14 75 1
15 75 1
18 75 1
21 75 1
22 75 1
23 75 1
24 75 1
27 75 1
28 75 1
7 76 1
11 76 1
13 76 1
14 76 1
15 76 1
16 76 1
23 76 1
24 76 1
27 76 1
28 76 1
29 76 1
30 76 1
31 76 1
2 77 1
3 77 1
4 77 1
7 77 1
10 77 1
11 77 1
12 77 1
16 77 1
19 77 1
20 77 1
21 77 1
25 77 1
27 77 1
28 77 1
2 78 1
5 78 1
7 78 1
12 78 1
13 78 1
15 78 1
17 78 1
19 78 1
24 78 1
25 78 1
27 78 1
2 79 1
3 79 1
4 79 1
5 79 1
7 79 1
9 79 1
10 79 1
15 79 1
16 79 1
18 79 1
25 79 1
27 79 1
28 79 1
2 80 1
5 80 1
6 80 1
7 80 1
8 80 1
10 80 1
11 80 1
13 80 1
14 80 1
15 80 1
16 80 1
19 80 1
20 80 1
25 80 1
28 80 1
1 81 1
2 81 1
3 81 1
5 81 1
10 81 1
11 81 1
13 81 1
15 81 1
17 81 1
22 81 1
25 81 1
27 81 1
28 81 1
2 82 1
3 82 1
6 82 1
7 82 1
11 82 1
18 82 1
20 82 1
23 82 1
25 82 1
27 82 1
2 83 1
3 83 1
4 83 1
5 83 1
7 83 1
11 83 1
12 83 1
14 83 1
15 83 1
17 83 1
19 83 1
20 83 1
25 83 1
26 83 1
27 83 1
1 84 1
2 84 1
4 84 1
6 84 1
7 84 1
10 84 1
15 84 1
17 84 1
18 84 1
19 84 1
22 84 1
28 84 1
2 85 1
5 85 1
7 85 1
10 85 1
11 85 1
14 85 1
15 85 1
16 85 1
18 85 1
19 85 1
21 85 1
23 85 1
25 85 1
28 85 1
2 86 1
3 86 1
7 86 1
10 86 1
11 86 1
13 86 1
14 86 1
15 86 1
19 86 1
22 86 1
24 86 1
25 86 1
26 86 1
27 86 1
28 86 1
2 87 1
3 87 1
5 87 1
7 87 1
9 87 1
11 87 1
15 87 1
22 87 1
23 87 1
27 87 1
28 87 1
2 88 1
3 88 1
4 88 1
5 88 1
6 88 1
7 88 1
8 88 1
11 88 1
15 88 1
19 88 1
20 88 1
21 88 1
23 88 1
25 88 1
26 88 1
27 88 1
28 88 1
1 89 1
2 89 1
4 89 1
5 89 1
6 89 1
10 89 1
11 89 1
15 89 1
17 89 1
19 89 1
24 89 1
26 89 1
27 89 1
2 90 1
7 90 1
9 90 1
10 90 1
11 90 1
18 90 1
19 90 1
21 90 1
28 90 1
2 91 1
3 91 1
7 91 1
8 91 1
10 91 1
11 91 1
12 91 1
14 91 1
15 91 1
19 91 1
21 91 1
24 91 1
25 91 1
28 91 1
2 92 1
3 92 1
5 92 1
9 92 1
10 92 1
15 92 1
19 92 1
22 92 1
24 92 1
25 92 1
1 93 1
2 93 1
3 93 1
5 93 1
6 93 1
7 93 1
8 93 1
9 93 1
11 93 1
16 93 1
19 93 1
23 93 1
25 93 1
1 94 1
2 94 1
3 94 1
4 94 1
5 94 1
6 94 1
8 94 1
10 94 1
11 94 1
12 94 1
13 94 1
15 94 1
19 94 1
25 94 1
26 94 1
27 94 1
28 94 1
2 95 1
10 96 1
4 97 1
3 98 1
6 102 1
5 104 1
1 151 1
9 153 1
8 154 1
7 155 1
15 156 1
12 157 1
11 158 1
16 159 1
13 160 1
19 161 1
20 162 1
17 163 1
18 164 1
14 165 1
22 166 1
23 167 1
26 168 1
25 169 1
21 170 1
24 171 1
27 172 1
28 192 1
30 230 1
29 231 1
31 250 1
9 287 1
12 287 1
13 287 1
15 287 1
16 287 1
19 287 1
22 287 1
26 287 1
27 287 1
29 287 1
8 288 1
9 288 1
11 288 1
15 288 1
16 288 1
20 288 1
22 288 1
23 288 1
25 288 1
26 288 1
29 288 1
7 289 1
8 289 1
9 289 1
15 289 1
17 289 1
19 289 1
21 289 1
22 289 1
23 289 1
25 289 1
27 289 1
28 289 1
29 289 1
30 289 1
31 289 1
7 290 1
8 290 1
9 290 1
13 290 1
16 290 1
18 290 1
19 290 1
20 290 1
21 290 1
22 290 1
23 290 1
24 290 1
30 290 1
7 291 1
8 291 1
12 291 1
14 291 1
16 291 1
17 291 1
20 291 1
22 291 1
23 291 1
24 291 1
31 291 1
7 292 1
11 292 1
12 292 1
16 292 1
17 292 1
18 292 1
19 292 1
23 292 1
29 292 1
30 292 1
31 292 1
9 293 1
11 293 1
12 293 1
14 293 1
18 293 1
19 293 1
20 293 1
22 293 1
30 293 1
8 294 1
9 294 1
11 294 1
12 294 1
13 294 1
14 294 1
15 294 1
17 294 1
19 294 1
20 294 1
23 294 1
26 294 1
27 294 1
28 294 1
30 294 1
31 294 1
7 295 1
8 295 1
9 295 1
11 295 1
13 295 1
15 295 1
17 295 1
18 295 1
20 295 1
25 295 1
27 295 1
28 295 1
7 296 1
8 296 1
9 296 1
13 296 1
14 296 1
17 296 1
18 296 1
21 296 1
22 296 1
26 296 1
27 296 1
29 296 1
7 297 1
8 297 1
9 297 1
12 297 1
13 297 1
14 297 1
16 297 1
18 297 1
23 297 1
24 297 1
25 297 1
26 297 1
27 297 1
28 297 1
29 297 1
30 297 1
31 297 1
7 298 1
8 298 1
11 298 1
12 298 1
14 298 1
16 298 1
21 298 1
25 298 1
7 299 1
9 299 1
11 299 1
12 299 1
19 299 1
21 299 1
24 299 1
26 299 1
28 299 1
29 299 1
31 299 1
8 300 1
11 300 1
12 300 1
13 300 1
19 300 1
20 300 1
22 300 1
24 300 1
25 300 1
26 300 1
28 300 1
29 300 1
30 300 1
31 300 1
7 301 1
11 301 1
12 301 1
13 301 1
15 301 1
17 301 1
20 301 1
21 301 1
22 301 1
23 301 1
25 301 1
26 301 1
27 301 1
31 301 1
9 302 1
11 302 1
13 302 1
17 302 1
18 302 1
21 302 1
22 302 1
23 302 1
24 302 1
25 302 1
27 302 1
28 302 1
29 302 1
30 302 1
8 303 1
12 303 1
13 303 1
14 303 1
15 303 1
18 303 1
21 303 1
22 303 1
23 303 1
24 303 1
27 303 1
28 303 1
7 304 1
11 304 1
13 304 1
14 304 1
15 304 1
16 304 1
23 304 1
24 304 1
27 304 1
28 304 1
29 304 1
30 304 1
31 304 1
1 363 1
4 363 1
7 363 1
10 363 1
11 363 1
13 363 1
14 363 1
15 363 1
17 363 1
19 363 1
20 363 1
22 363 1
23 363 1
24 363 1
26 363 1
31 363 1
1 364 1
3 364 1
7 364 1
9 364 1
11 364 1
12 364 1
13 364 1
14 364 1
16 364 1
18 364 1
24 364 1
25 364 1
27 364 1
28 364 1
31 364 1
4 365 1
7 365 1
8 365 1
9 365 1
10 365 1
16 365 1
17 365 1
20 365 1
21 365 1
23 365 1
24 365 1
26 365 1
28 365 1
1 366 1
3 366 1
6 366 1
8 366 1
9 366 1
10 366 1
11 366 1
14 366 1
18 366 1
19 366 1
20 366 1
22 366 1
23 366 1
25 366 1
28 366 1
31 366 1
6 367 1
8 367 1
10 367 1
11 367 1
13 367 1
15 367 1
16 367 1
19 367 1
21 367 1
24 367 1
30 367 1
5 368 1
9 368 1
11 368 1
12 368 1
14 368 1
15 368 1
16 368 1
17 368 1
22 368 1
23 368 1
26 368 1
27 368 1
29 368 1
30 368 1
1 369 1
4 369 1
5 369 1
6 369 1
7 369 1
8 369 1
12 369 1
14 369 1
15 369 1
16 369 1
17 369 1
18 369 1
19 369 1
20 369 1
24 369 1
25 369 1
27 369 1
28 369 1
29 369 1
30 369 1
31 369 1
1 370 1
3 370 1
4 370 1
9 370 1
10 370 1
12 370 1
18 370 1
19 370 1
21 370 1
23 370 1
24 370 1
26 370 1
27 370 1
29 370 1
3 371 1
5 371 1
6 371 1
7 371 1
8 371 1
9 371 1
13 371 1
15 371 1
17 371 1
19 371 1
22 371 1
23 371 1
25 371 1
27 371 1
30 371 1
4 372 1
6 372 1
8 372 1
10 372 1
11 372 1
12 372 1
13 372 1
14 372 1
17 372 1
18 372 1
21 372 1
22 372 1
24 372 1
29 372 1
30 372 1
31 372 1
3 373 1
5 373 1
6 373 1
9 373 1
13 373 1
15 373 1
16 373 1
17 373 1
18 373 1
20 373 1
26 373 1
29 373 1
31 373 1
4 374 1
5 374 1
7 374 1
8 374 1
11 374 1
12 374 1
15 374 1
18 374 1
20 374 1
22 374 1
23 374 1
24 374 1
25 374 1
26 374 1
31 374 1
1 375 1
3 375 1
4 375 1
5 375 1
9 375 1
12 375 1
13 375 1
16 375 1
19 375 1
20 375 1
21 375 1
22 375 1
24 375 1
25 375 1
28 375 1
30 375 1
31 375 1
3 376 1
4 376 1
6 376 1
7 376 1
8 376 1
9 376 1
14 376 1
15 376 1
21 376 1
22 376 1
26 376 1
27 376 1
28 376 1
29 376 1
30 376 1
31 376 1
1 377 1
3 377 1
4 377 1
8 377 1
11 377 1
12 377 1
13 377 1
14 377 1
17 377 1
19 377 1
20 377 1
25 377 1
26 377 1
27 377 1
28 377 1
29 377 1
1 378 1
3 378 1
4 378 1
5 378 1
6 378 1
13 378 1
14 378 1
15 378 1
16 378 1
18 378 1
21 378 1
23 378 1
24 378 1
25 378 1
26 378 1
27 378 1
30 378 1
3 379 1
4 379 1
7 379 1
9 379 1
10 379 1
11 379 1
12 379 1
15 379 1
17 379 1
20 379 1
21 379 1
23 379 1
25 379 1
27 379 1
28 379 1
29 379 1
30 379 1
31 379 1
3 380 1
5 380 1
7 380 1
8 380 1
10 380 1
12 380 1
13 380 1
14 380 1
16 380 1
18 380 1
19 380 1
20 380 1
21 380 1
22 380 1
23 380 1
27 380 1
29 380 1
3 382 1
8 382 1
9 382 1
10 382 1
11 382 1
13 382 1
14 382 1
16 382 1
19 382 1
21 382 1
24 382 1
26 382 1
27 382 1
28 382 1
1 383 1
3 383 1
4 383 1
5 383 1
6 383 1
7 383 1
10 383 1
11 383 1
14 383 1
20 383 1
21 383 1
22 383 1
25 383 1
26 383 1
27 383 1
28 383 1
30 383 1
4 384 1
5 384 1
8 384 1
9 384 1
10 384 1
11 384 1
13 384 1
14 384 1
15 384 1
17 384 1
19 384 1
22 384 1
23 384 1
25 384 1
26 384 1
27 384 1
29 384 1
30 384 1
1 385 1
4 385 1
7 385 1
9 385 1
11 385 1
12 385 1
13 385 1
14 385 1
18 385 1
20 385 1
22 385 1
23 385 1
24 385 1
25 385 1
28 385 1
29 385 1
31 385 1
1 386 1
5 386 1
6 386 1
10 386 1
13 386 1
15 386 1
17 386 1
22 386 1
23 386 1
24 386 1
28 386 1
3 387 1
4 387 1
5 387 1
6 387 1
8 387 1
10 387 1
11 387 1
12 387 1
13 387 1
14 387 1
16 387 1
18 387 1
21 387 1
23 387 1
24 387 1
30 387 1
4 388 1
7 388 1
8 388 1
21 388 1
22 388 1
29 388 1
31 388 1
7 389 1
8 389 1
9 389 1
10 389 1
11 389 1
13 389 1
14 389 1
15 389 1
16 389 1
19 389 1
21 389 1
23 389 1
26 389 1
3 390 1
4 390 1
5 390 1
7 390 1
9 390 1
10 390 1
11 390 1
12 390 1
14 390 1
15 390 1
20 390 1
21 390 1
22 390 1
25 390 1
27 390 1
28 390 1
30 390 1
31 390 1
4 391 1
5 391 1
6 391 1
9 391 1
12 391 1
13 391 1
14 391 1
15 391 1
17 391 1
19 391 1
22 391 1
23 391 1
26 391 1
29 391 1
30 391 1
1 392 1
5 392 1
9 392 1
12 392 1
13 392 1
14 392 1
16 392 1
18 392 1
20 392 1
21 392 1
22 392 1
23 392 1
24 392 1
25 392 1
28 392 1
29 392 1
30 392 1
3 393 1
16 393 1
17 393 1
22 393 1
23 393 1
29 393 1
31 393 1
1 394 1
3 394 1
5 394 1
6 394 1
8 394 1
9 394 1
10 394 1
11 394 1
14 394 1
16 394 1
18 394 1
19 394 1
21 394 1
23 394 1
24 394 1
28 394 1
1 395 1
3 395 1
4 395 1
5 395 1
7 395 1
10 395 1
11 395 1
19 395 1
20 395 1
21 395 1
22 395 1
27 395 1
28 395 1
1 396 1
4 396 1
8 396 1
9 396 1
11 396 1
13 396 1
14 396 1
15 396 1
17 396 1
19 396 1
20 396 1
21 396 1
23 396 1
26 396 1
27 396 1
28 396 1
1 397 1
5 397 1
6 397 1
7 397 1
9 397 1
10 397 1
11 397 1
12 397 1
13 397 1
14 397 1
17 397 1
18 397 1
20 397 1
21 397 1
22 397 1
25 397 1
27 397 1
3 398 1
4 398 1
5 398 1
6 398 1
9 398 1
10 398 1
13 398 1
15 398 1
17 398 1
18 398 1
22 398 1
23 398 1
26 398 1
27 398 1
1 399 1
4 399 1
6 399 1
9 399 1
11 399 1
12 399 1
13 399 1
16 399 1
18 399 1
21 399 1
23 399 1
24 399 1
25 399 1
31 399 1
1 400 1
5 400 1
6 400 1
7 400 1
8 400 1
9 400 1
13 400 1
15 400 1
16 400 1
20 400 1
21 400 1
22 400 1
26 400 1
1 401 1
3 401 1
4 401 1
5 401 1
9 401 1
12 401 1
13 401 1
16 401 1
19 401 1
20 401 1
21 401 1
22 401 1
24 401 1
25 401 1
28 401 1
30 401 1
31 401 1
4 402 1
6 402 1
7 402 1
10 402 1
11 402 1
13 402 1
15 402 1
16 402 1
19 402 1
22 402 1
24 402 1
29 402 1
30 402 1
31 402 1
5 403 1
6 403 1
7 403 1
8 403 1
10 403 1
12 403 1
13 403 1
17 403 1
19 403 1
21 403 1
22 403 1
29 403 1
30 403 1
1 404 1
3 404 1
6 404 1
8 404 1
9 404 1
10 404 1
11 404 1
16 404 1
17 404 1
18 404 1
19 404 1
21 404 1
22 404 1
24 404 1
29 404 1
1 405 1
3 405 1
10 405 1
13 405 1
14 405 1
15 405 1
17 405 1
18 405 1
21 405 1
22 405 1
24 405 1
27 405 1
30 405 1
1 406 1
3 406 1
6 406 1
7 406 1
8 406 1
12 406 1
14 406 1
15 406 1
16 406 1
17 406 1
18 406 1
19 406 1
20 406 1
21 406 1
24 406 1
27 406 1
28 406 1
29 406 1
3 407 1
4 407 1
5 407 1
6 407 1
8 407 1
10 407 1
11 407 1
12 407 1
13 407 1
14 407 1
16 407 1
18 407 1
21 407 1
23 407 1
24 407 1
30 407 1
1 408 1
8 408 1
10 408 1
11 408 1
13 408 1
14 408 1
15 408 1
17 408 1
19 408 1
20 408 1
21 408 1
23 408 1
24 408 1
26 408 1
28 408 1
29 408 1
1 409 1
3 409 1
8 409 1
10 409 1
12 409 1
15 409 1
18 409 1
19 409 1
21 409 1
23 409 1
24 409 1
25 409 1
26 409 1
27 409 1
28 409 1
31 409 1
3 410 1
5 410 1
8 410 1
11 410 1
12 410 1
14 410 1
15 410 1
16 410 1
17 410 1
22 410 1
23 410 1
24 410 1
25 410 1
26 410 1
27 410 1
30 410 1
31 410 1
1 411 1
3 411 1
4 411 1
5 411 1
8 411 1
10 411 1
11 411 1
12 411 1
13 411 1
15 411 1
17 411 1
18 411 1
20 411 1
25 411 1
26 411 1
28 411 1
29 411 1
30 411 1
31 411 1
1 412 1
5 412 1
6 412 1
8 412 1
9 412 1
10 412 1
11 412 1
12 412 1
14 412 1
15 412 1
18 412 1
19 412 1
20 412 1
22 412 1
23 412 1
25 412 1
28 412 1
29 412 1
3 413 1
5 413 1
9 413 1
11 413 1
12 413 1
14 413 1
15 413 1
26 413 1
27 413 1
30 413 1
31 413 1
3 414 1
4 414 1
7 414 1
9 414 1
10 414 1
11 414 1
12 414 1
15 414 1
17 414 1
20 414 1
21 414 1
23 414 1
25 414 1
27 414 1
28 414 1
29 414 1
30 414 1
31 414 1
5 415 1
7 415 1
9 415 1
11 415 1
12 415 1
18 415 1
20 415 1
22 415 1
23 415 1
24 415 1
26 415 1
28 415 1
29 415 1
1 416 1
3 416 1
4 416 1
5 416 1
6 416 1
7 416 1
11 416 1
14 416 1
20 416 1
21 416 1
22 416 1
25 416 1
26 416 1
28 416 1
30 416 1
1 417 1
4 417 1
5 417 1
7 417 1
8 417 1
9 417 1
20 417 1
24 417 1
25 417 1
27 417 1
29 417 1
30 417 1
31 417 1
4 418 1
10 418 1
16 418 1
20 418 1
22 418 1
23 418 1
27 418 1
29 418 1
31 418 1
3 420 1
6 420 1
7 420 1
9 420 1
11 420 1
12 420 1
16 420 1
17 420 1
18 420 1
20 420 1
21 420 1
26 420 1
27 420 1
29 420 1
30 420 1
31 420 1
1 421 1
3 421 1
6 421 1
7 421 1
8 421 1
9 421 1
10 421 1
12 421 1
13 421 1
14 421 1
15 421 1
20 421 1
21 421 1
24 421 1
25 421 1
26 421 1
27 421 1
28 421 1
31 421 1
3 422 1
4 422 1
5 422 1
6 422 1
8 422 1
10 422 1
15 422 1
16 422 1
18 422 1
19 422 1
20 422 1
22 422 1
24 422 1
25 422 1
26 422 1
27 422 1
29 422 1
30 422 1
31 422 1
1 423 1
4 423 1
5 423 1
6 423 1
11 423 1
13 423 1
14 423 1
16 423 1
18 423 1
23 423 1
25 423 1
26 423 1
27 423 1
1 424 1
5 424 1
7 424 1
9 424 1
10 424 1
11 424 1
12 424 1
13 424 1
14 424 1
17 424 1
18 424 1
19 424 1
20 424 1
22 424 1
25 424 1
28 424 1
29 424 1
30 424 1
31 424 1
1 425 1
3 425 1
4 425 1
5 425 1
7 425 1
8 425 1
9 425 1
12 425 1
14 425 1
15 425 1
19 425 1
22 425 1
23 425 1
26 425 1
27 425 1
30 425 1
31 425 1
8 426 1
9 426 1
15 426 1
16 426 1
17 426 1
18 426 1
21 426 1
22 426 1
23 426 1
25 426 1
27 426 1
30 426 1
3 427 1
6 427 1
8 427 1
9 427 1
10 427 1
11 427 1
13 427 1
14 427 1
16 427 1
17 427 1
20 427 1
23 427 1
24 427 1
27 427 1
28 427 1
3 428 1
4 428 1
6 428 1
8 428 1
11 428 1
12 428 1
13 428 1
19 428 1
20 428 1
21 428 1
22 428 1
28 428 1
29 428 1
31 428 1
1 429 1
5 429 1
9 429 1
12 429 1
18 429 1
19 429 1
21 429 1
23 429 1
24 429 1
26 429 1
28 429 1
29 429 1
3 430 1
5 430 1
6 430 1
7 430 1
8 430 1
12 430 1
14 430 1
16 430 1
17 430 1
18 430 1
21 430 1
24 430 1
25 430 1
27 430 1
29 430 1
3 431 1
12 431 1
13 431 1
14 431 1
15 431 1
16 431 1
17 431 1
20 431 1
22 431 1
24 431 1
26 431 1
29 431 1
30 431 1
31 431 1
3 432 1
5 432 1
7 432 1
13 432 1
16 432 1
19 432 1
20 432 1
21 432 1
22 432 1
23 432 1
25 432 1
26 432 1
27 432 1
28 432 1
30 432 1
3 433 1
6 433 1
7 433 1
9 433 1
10 433 1
11 433 1
12 433 1
13 433 1
15 433 1
16 433 1
18 433 1
19 433 1
23 433 1
24 433 1
25 433 1
1 434 1
3 434 1
4 434 1
7 434 1
8 434 1
10 434 1
13 434 1
14 434 1
15 434 1
17 434 1
18 434 1
19 434 1
27 434 1
28 434 1
29 434 1
30 434 1
1 435 1
4 435 1
5 435 1
9 435 1
10 435 1
11 435 1
14 435 1
15 435 1
16 435 1
17 435 1
19 435 1
21 435 1
22 435 1
26 435 1
30 435 1
4 436 1
7 436 1
8 436 1
9 436 1
10 436 1
11 436 1
13 436 1
17 436 1
21 436 1
22 436 1
23 436 1
24 436 1
25 436 1
26 436 1
27 436 1
31 436 1
4 437 1
8 437 1
11 437 1
12 437 1
15 437 1
17 437 1
19 437 1
20 437 1
23 437 1
24 437 1
25 437 1
27 437 1
29 437 1
30 437 1
1 439 1
3 439 1
5 439 1
6 439 1
7 439 1
8 439 1
9 439 1
10 439 1
13 439 1
17 439 1
18 439 1
22 439 1
23 439 1
24 439 1
25 439 1
29 439 1
30 439 1
31 439 1
3 440 1
4 440 1
13 440 1
14 440 1
15 440 1
17 440 1
19 440 1
21 440 1
22 440 1
24 440 1
25 440 1
26 440 1
27 440 1
30 440 1
1 441 1
5 441 1
7 441 1
8 441 1
10 441 1
12 441 1
13 441 1
17 441 1
19 441 1
20 441 1
21 441 1
30 441 1
31 441 1
1 442 1
3 442 1
4 442 1
8 442 1
9 442 1
11 442 1
13 442 1
15 442 1
19 442 1
20 442 1
22 442 1
23 442 1
25 442 1
31 442 1
6 443 1
9 443 1
10 443 1
12 443 1
13 443 1
16 443 1
18 443 1
19 443 1
20 443 1
21 443 1
22 443 1
24 443 1
25 443 1
26 443 1
29 443 1
30 443 1
31 443 1
1 444 1
3 444 1
4 444 1
6 444 1
7 444 1
11 444 1
14 444 1
18 444 1
19 444 1
20 444 1
21 444 1
22 444 1
28 444 1
30 444 1
5 445 1
7 445 1
8 445 1
9 445 1
10 445 1
13 445 1
14 445 1
15 445 1
16 445 1
18 445 1
20 445 1
25 445 1
28 445 1
3 446 1
4 446 1
5 446 1
6 446 1
9 446 1
10 446 1
12 446 1
14 446 1
15 446 1
18 446 1
19 446 1
21 446 1
23 446 1
24 446 1
25 446 1
27 446 1
28 446 1
29 446 1
30 446 1
31 446 1
4 447 1
7 447 1
11 447 1
12 447 1
13 447 1
14 447 1
17 447 1
18 447 1
20 447 1
21 447 1
23 447 1
25 447 1
26 447 1
30 447 1
31 447 1
1 448 1
5 448 1
6 448 1
7 448 1
8 448 1
9 448 1
11 448 1
13 448 1
14 448 1
15 448 1
16 448 1
19 448 1
21 448 1
23 448 1
26 448 1
28 448 1
3 449 1
9 449 1
10 449 1
12 449 1
15 449 1
16 449 1
17 449 1
18 449 1
19 449 1
20 449 1
23 449 1
26 449 1
27 449 1
28 449 1
29 449 1
3 450 1
4 450 1
5 450 1
6 450 1
7 450 1
9 450 1
11 450 1
12 450 1
14 450 1
20 450 1
22 450 1
23 450 1
24 450 1
26 450 1
29 450 1
30 450 1
7 451 1
10 451 1
11 451 1
13 451 1
15 451 1
16 451 1
18 451 1
24 451 1
26 451 1
30 451 1
31 451 1
1 452 1
3 452 1
4 452 1
5 452 1
7 452 1
8 452 1
12 452 1
14 452 1
15 452 1
16 452 1
17 452 1
18 452 1
19 452 1
22 452 1
23 452 1
24 452 1
31 452 1
6 453 1
8 453 1
10 453 1
11 453 1
12 453 1
14 453 1
15 453 1
17 453 1
20 453 1
24 453 1
25 453 1
26 453 1
28 453 1
29 453 1
30 453 1
31 453 1
3 454 1
4 454 1
6 454 1
8 454 1
10 454 1
11 454 1
12 454 1
13 454 1
16 454 1
21 454 1
23 454 1
24 454 1
27 454 1
28 454 1
4 455 1
5 455 1
8 455 1
10 455 1
11 455 1
16 455 1
17 455 1
18 455 1
19 455 1
22 455 1
23 455 1
25 455 1
26 455 1
28 455 1
29 455 1
31 455 1
4 456 1
5 456 1
6 456 1
8 456 1
9 456 1
14 456 1
16 456 1
17 456 1
20 456 1
21 456 1
22 456 1
24 456 1
26 456 1
27 456 1
29 456 1
30 456 1
31 456 1
3 457 1
4 457 1
5 457 1
6 457 1
8 457 1
9 457 1
12 457 1
13 457 1
15 457 1
21 457 1
27 457 1
3 458 1
5 458 1
7 458 1
13 458 1
16 458 1
19 458 1
20 458 1
21 458 1
22 458 1
23 458 1
25 458 1
26 458 1
27 458 1
28 458 1
30 458 1
1 459 1
5 459 1
8 459 1
11 459 1
12 459 1
15 459 1
16 459 1
17 459 1
19 459 1
22 459 1
29 459 1
30 459 1
31 459 1
1 460 1
7 460 1
8 460 1
10 460 1
18 460 1
21 460 1
22 460 1
24 460 1
25 460 1
26 460 1
28 460 1
29 460 1
4 461 1
7 461 1
8 461 1
9 461 1
11 461 1
12 461 1
13 461 1
14 461 1
15 461 1
16 461 1
20 461 1
22 461 1
26 461 1
31 461 1
1 462 1
3 462 1
7 462 1
10 462 1
15 462 1
17 462 1
19 462 1
20 462 1
21 462 1
24 462 1
26 462 1
27 462 1
4 463 1
6 463 1
8 463 1
9 463 1
10 463 1
11 463 1
13 463 1
15 463 1
16 463 1
17 463 1
18 463 1
21 463 1
22 463 1
23 463 1
26 463 1
27 463 1
31 463 1
1 464 1
3 464 1
4 464 1
6 464 1
7 464 1
11 464 1
14 464 1
18 464 1
19 464 1
20 464 1
21 464 1
22 464 1
28 464 1
30 464 1
3 465 1
5 465 1
6 465 1
8 465 1
10 465 1
11 465 1
12 465 1
13 465 1
14 465 1
15 465 1
17 465 1
21 465 1
25 465 1
26 465 1
27 465 1
29 465 1
30 465 1
31 465 1
1 466 1
4 466 1
5 466 1
7 466 1
8 466 1
13 466 1
18 466 1
19 466 1
20 466 1
23 466 1
26 466 1
29 466 1
30 466 1
3 467 1
5 467 1
6 467 1
7 467 1
8 467 1
10 467 1
11 467 1
12 467 1
13 467 1
14 467 1
15 467 1
16 467 1
17 467 1
19 467 1
21 467 1
22 467 1
23 467 1
24 467 1
27 467 1
29 467 1
4 468 1
7 468 1
8 468 1
9 468 1
15 468 1
18 468 1
19 468 1
21 468 1
25 468 1
27 468 1
28 468 1
1 469 1
3 469 1
5 469 1
7 469 1
11 469 1
13 469 1
14 469 1
15 469 1
16 469 1
22 469 1
23 469 1
25 469 1
26 469 1
27 469 1
30 469 1
31 469 1
1 470 1
6 470 1
8 470 1
11 470 1
15 470 1
19 470 1
20 470 1
24 470 1
27 470 1
29 470 1
31 470 1
7 471 1
8 471 1
9 471 1
10 471 1
11 471 1
13 471 1
17 471 1
21 471 1
22 471 1
23 471 1
24 471 1
25 471 1
26 471 1
27 471 1
31 471 1
1 472 1
4 472 1
5 472 1
6 472 1
7 472 1
9 472 1
10 472 1
11 472 1
12 472 1
13 472 1
15 472 1
18 472 1
19 472 1
20 472 1
22 472 1
27 472 1
31 472 1
3 473 1
4 473 1
10 473 1
13 473 1
14 473 1
15 473 1
17 473 1
19 473 1
21 473 1
22 473 1
24 473 1
25 473 1
26 473 1
30 473 1
1 474 1
3 474 1
4 474 1
5 474 1
6 474 1
8 474 1
9 474 1
10 474 1
11 474 1
13 474 1
16 474 1
18 474 1
19 474 1
26 474 1
27 474 1
29 474 1
3 475 1
4 475 1
6 475 1
7 475 1
10 475 1
11 475 1
12 475 1
14 475 1
19 475 1
21 475 1
22 475 1
23 475 1
24 475 1
26 475 1
27 475 1
28 475 1
31 475 1
