%%MatrixMarket matrix coordinate integer general
%
84 169 312
1 1 1
1 2 1
84 2 1
2 3 1
84 3 1
2 4 1
83 4 1
3 5 1
83 5 1
3 6 1
82 6 1
4 7 1
82 7 1
4 8 1
81 8 1
5 9 1
81 9 1
5 10 1
80 10 1
6 11 1
80 11 1
6 12 1
79 12 1
79 13 1
1 14 1
1 15 1
7 15 1
2 16 1
7 16 1
2 17 1
8 17 1
3 18 1
8 18 1
3 19 1
9 19 1
4 20 1
9 20 1
4 21 1
10 21 1
5 22 1
10 22 1
5 23 1
11 23 1
6 24 1
11 24 1
6 25 1
12 25 1
12 26 1
13 27 1
7 28 1
13 28 1
7 29 1
14 29 1
8 30 1
14 30 1
8 31 1
15 31 1
9 32 1
15 32 1
9 33 1
16 33 1
10 34 1
16 34 1
10 35 1
17 35 1
11 36 1
17 36 1
11 37 1
18 37 1
12 38 1
18 38 1
12 39 1
13 40 1
13 41 1
19 41 1
14 42 1
19 42 1
14 43 1
20 43 1
15 44 1
20 44 1
15 45 1
21 45 1
16 46 1
21 46 1
16 47 1
22 47 1
17 48 1
22 48 1
17 49 1
23 49 1
18 50 1
23 50 1
18 51 1
24 51 1
24 52 1
25 53 1
19 54 1
25 54 1
19 55 1
26 55 1
20 56 1
26 56 1
20 57 1
27 57 1
21 58 1
27 58 1
21 59 1
28 59 1
22 60 1
28 60 1
22 61 1
29 61 1
23 62 1
29 62 1
23 63 1
30 63 1
24 64 1
30 64 1
24 65 1
25 66 1
25 67 1
31 67 1
26 68 1
31 68 1
26 69 1
32 69 1
27 70 1
32 70 1
27 71 1
33 71 1
28 72 1
33 72 1
28 73 1
34 73 1
29 74 1
34 74 1
29 75 1
35 75 1
30 76 1
35 76 1
30 77 1
36 77 1
36 78 1
37 79 1
31 80 1
37 80 1
31 81 1
38 81 1
32 82 1
38 82 1
32 83 1
39 83 1
33 84 1
39 84 1
33 85 1
40 85 1
34 86 1
40 86 1
34 87 1
41 87 1
35 88 1
41 88 1
35 89 1
42 89 1
36 90 1
42 90 1
36 91 1
37 92 1
37 93 1
43 93 1
38 94 1
43 94 1
38 95 1
44 95 1
39 96 1
44 96 1
39 97 1
45 97 1
40 98 1
45 98 1
40 99 1
46 99 1
41 100 1
46 100 1
41 101 1
47 101 1
42 102 1
47 102 1
42 103 1
48 103 1
48 104 1
49 105 1
43 106 1
49 106 1
43 107 1
50 107 1
44 108 1
50 108 1
44 109 1
51 109 1
45 110 1
51 110 1
45 111 1
52 111 1
46 112 1
52 112 1
46 113 1
53 113 1
47 114 1
53 114 1
47 115 1
54 115 1
48 116 1
54 116 1
48 117 1
49 118 1
49 119 1
55 119 1
50 120 1
55 120 1
50 121 1
56 121 1
51 122 1
56 122 1
51 123 1
57 123 1
52 124 1
57 124 1
52 125 1
58 125 1
53 126 1
58 126 1
53 127 1
59 127 1
54 128 1
59 128 1
54 129 1
60 129 1
60 130 1
61 131 1
55 132 1
61 132 1
55 133 1
62 133 1
56 134 1
62 134 1
56 135 1
63 135 1
57 136 1
63 136 1
57 137 1
64 137 1
58 138 1
64 138 1
58 139 1
65 139 1
59 140 1
65 140 1
59 141 1
66 141 1
60 142 1
66 142 1
60 143 1
61 144 1
61 145 1
67 145 1
62 146 1
67 146 1
62 147 1
68 147 1
63 148 1
68 148 1
63 149 1
69 149 1
64 150 1
69 150 1
64 151 1
70 151 1
65 152 1
70 152 1
65 153 1
71 153 1
66 154 1
71 154 1
66 155 1
72 155 1
72 156 1
73 157 1
67 158 1
73 158 1
67 159 1
74 159 1
68 160 1
74 160 1
68 161 1
75 161 1
69 162 1
75 162 1
69 163 1
76 163 1
70 164 1
76 164 1
70 165 1
77 165 1
71 166 1
77 166 1
71 167 1
78 167 1
72 168 1
78 168 1
72 169 1
