%%MatrixMarket matrix coordinate integer general
%
60 121 220
1 1 1
1 2 1
60 2 1
2 3 1
60 3 1
2 4 1
59 4 1
3 5 1
59 5 1
3 6 1
58 6 1
4 7 1
58 7 1
4 8 1
57 8 1
5 9 1
57 9 1
5 10 1
56 10 1
56 11 1
1 12 1
1 13 1
6 13 1
2 14 1
6 14 1
2 15 1
7 15 1
3 16 1
7 16 1
3 17 1
8 17 1
4 18 1
8 18 1
4 19 1
9 19 1
5 20 1
9 20 1
5 21 1
10 21 1
10 22 1
11 23 1
6 24 1
11 24 1
6 25 1
12 25 1
7 26 1
12 26 1
7 27 1
13 27 1
8 28 1
13 28 1
8 29 1
14 29 1
9 30 1
14 30 1
9 31 1
15 31 1
10 32 1
15 32 1
10 33 1
11 34 1
11 35 1
16 35 1
12 36 1
16 36 1
12 37 1
17 37 1
13 38 1
17 38 1
13 39 1
18 39 1
14 40 1
18 40 1
14 41 1
19 41 1
15 42 1
19 42 1
15 43 1
20 43 1
20 44 1
21 45 1
16 46 1
21 46 1
16 47 1
22 47 1
17 48 1
22 48 1
17 49 1
23 49 1
18 50 1
23 50 1
18 51 1
24 51 1
19 52 1
24 52 1
19 53 1
25 53 1
20 54 1
25 54 1
20 55 1
21 56 1
21 57 1
26 57 1
22 58 1
26 58 1
22 59 1
27 59 1
23 60 1
27 60 1
23 61 1
28 61 1
24 62 1
28 62 1
24 63 1
29 63 1
25 64 1
29 64 1
25 65 1
30 65 1
30 66 1
31 67 1
26 68 1
31 68 1
26 69 1
32 69 1
27 70 1
32 70 1
27 71 1
33 71 1
28 72 1
33 72 1
28 73 1
34 73 1
29 74 1
34 74 1
29 75 1
35 75 1
30 76 1
35 76 1
30 77 1
31 78 1
31 79 1
36 79 1
32 80 1
36 80 1
32 81 1
37 81 1
33 82 1
37 82 1
33 83 1
38 83 1
34 84 1
38 84 1
34 85 1
39 85 1
35 86 1
39 86 1
35 87 1
40 87 1
40 88 1
41 89 1
36 90 1
41 90 1
36 91 1
42 91 1
37 92 1
42 92 1
37 93 1
43 93 1
38 94 1
43 94 1
38 95 1
44 95 1
39 96 1
44 96 1
39 97 1
45 97 1
40 98 1
45 98 1
40 99 1
41 100 1
41 101 1
46 101 1
42 102 1
46 102 1
42 103 1
47 103 1
43 104 1
47 104 1
43 105 1
48 105 1
44 106 1
48 106 1
44 107 1
49 107 1
45 108 1
49 108 1
45 109 1
50 109 1
50 110 1
51 111 1
46 112 1
51 112 1
46 113 1
52 113 1
47 114 1
52 114 1
47 115 1
53 115 1
48 116 1
53 116 1
48 117 1
54 117 1
49 118 1
54 118 1
49 119 1
55 119 1
50 120 1
55 120 1
50 121 1
