%%MatrixMarket matrix coordinate integer general
%
40 81 144
1 1 1
1 2 1
40 2 1
2 3 1
40 3 1
2 4 1
39 4 1
3 5 1
39 5 1
3 6 1
38 6 1
4 7 1
38 7 1
4 8 1
37 8 1
37 9 1
1 10 1
1 11 1
5 11 1
2 12 1
5 12 1
2 13 1
6 13 1
3 14 1
6 14 1
3 15 1
7 15 1
4 16 1
7 16 1
4 17 1
8 17 1
8 18 1
9 19 1
5 20 1
9 20 1
5 21 1
10 21 1
6 22 1
10 22 1
6 23 1
11 23 1
7 24 1
11 24 1
7 25 1
12 25 1
8 26 1
12 26 1
8 27 1
9 28 1
9 29 1
13 29 1
10 30 1
13 30 1
10 31 1
14 31 1
11 32 1
14 32 1
11 33 1
15 33 1
12 34 1
15 34 1
12 35 1
16 35 1
16 36 1
17 37 1
13 38 1
17 38 1
13 39 1
18 39 1
14 40 1
18 40 1
14 41 1
19 41 1
15 42 1
19 42 1
15 43 1
20 43 1
16 44 1
20 44 1
16 45 1
17 46 1
17 47 1
21 47 1
18 48 1
21 48 1
18 49 1
22 49 1
19 50 1
22 50 1
19 51 1
23 51 1
20 52 1
23 52 1
20 53 1
24 53 1
24 54 1
25 55 1
21 56 1
25 56 1
21 57 1
26 57 1
22 58 1
26 58 1
22 59 1
27 59 1
23 60 1
27 60 1
23 61 1
28 61 1
24 62 1
28 62 1
24 63 1
25 64 1
25 65 1
29 65 1
26 66 1
29 66 1
26 67 1
30 67 1
27 68 1
30 68 1
27 69 1
31 69 1
28 70 1
31 70 1
28 71 1
32 71 1
32 72 1
33 73 1
29 74 1
33 74 1
29 75 1
34 75 1
30 76 1
34 76 1
30 77 1
35 77 1
31 78 1
35 78 1
31 79 1
36 79 1
32 80 1
36 80 1
32 81 1
