%%MatrixMarket matrix coordinate integer general
%
24 49 84
19 1 1
1 2 1
1 3 1
2 4 1
2 5 1
3 6 1
3 7 1
4 8 1
19 8 1
1 9 1
4 9 1
1 10 1
5 10 1
2 11 1
5 11 1
2 12 1
6 12 1
3 13 1
6 13 1
3 14 1
24 14 1
4 15 1
20 15 1
4 16 1
7 16 1
5 17 1
7 17 1
5 18 1
8 18 1
6 19 1
8 19 1
6 20 1
9 20 1
9 21 1
24 21 1
10 22 1
20 22 1
7 23 1
10 23 1
7 24 1
11 24 1
8 25 1
11 25 1
8 26 1
12 26 1
9 27 1
12 27 1
9 28 1
23 28 1
10 29 1
21 29 1
10 30 1
13 30 1
11 31 1
13 31 1
11 32 1
14 32 1
12 33 1
14 33 1
12 34 1
15 34 1
15 35 1
23 35 1
16 36 1
21 36 1
13 37 1
16 37 1
13 38 1
17 38 1
14 39 1
17 39 1
14 40 1
18 40 1
15 41 1
18 41 1
15 42 1
22 42 1
16 43 1
16 44 1
17 45 1
17 46 1
18 47 1
18 48 1
22 49 1
