%%MatrixMarket matrix coordinate integer general
%
84 169 312
73 1 1
1 2 1
1 3 1
2 4 1
2 5 1
3 6 1
3 7 1
4 8 1
4 9 1
5 10 1
5 11 1
6 12 1
6 13 1
7 14 1
73 14 1
1 15 1
7 15 1
1 16 1
8 16 1
2 17 1
8 17 1
2 18 1
9 18 1
3 19 1
9 19 1
3 20 1
10 20 1
4 21 1
10 21 1
4 22 1
11 22 1
5 23 1
11 23 1
5 24 1
12 24 1
6 25 1
12 25 1
6 26 1
84 26 1
7 27 1
74 27 1
7 28 1
13 28 1
8 29 1
13 29 1
8 30 1
14 30 1
9 31 1
14 31 1
9 32 1
15 32 1
10 33 1
15 33 1
10 34 1
16 34 1
11 35 1
16 35 1
11 36 1
17 36 1
12 37 1
17 37 1
12 38 1
18 38 1
18 39 1
84 39 1
19 40 1
74 40 1
13 41 1
19 41 1
13 42 1
20 42 1
14 43 1
20 43 1
14 44 1
21 44 1
15 45 1
21 45 1
15 46 1
22 46 1
16 47 1
22 47 1
16 48 1
23 48 1
17 49 1
23 49 1
17 50 1
24 50 1
18 51 1
24 51 1
18 52 1
83 52 1
19 53 1
75 53 1
19 54 1
25 54 1
20 55 1
25 55 1
20 56 1
26 56 1
21 57 1
26 57 1
21 58 1
27 58 1
22 59 1
27 59 1
22 60 1
28 60 1
23 61 1
28 61 1
23 62 1
29 62 1
24 63 1
29 63 1
24 64 1
30 64 1
30 65 1
83 65 1
31 66 1
75 66 1
25 67 1
31 67 1
25 68 1
32 68 1
26 69 1
32 69 1
26 70 1
33 70 1
27 71 1
33 71 1
27 72 1
34 72 1
28 73 1
34 73 1
28 74 1
35 74 1
29 75 1
35 75 1
29 76 1
36 76 1
30 77 1
36 77 1
30 78 1
82 78 1
31 79 1
76 79 1
31 80 1
37 80 1
32 81 1
37 81 1
32 82 1
38 82 1
33 83 1
38 83 1
33 84 1
39 84 1
34 85 1
39 85 1
34 86 1
40 86 1
35 87 1
40 87 1
35 88 1
41 88 1
36 89 1
41 89 1
36 90 1
42 90 1
42 91 1
82 91 1
43 92 1
76 92 1
37 93 1
43 93 1
37 94 1
44 94 1
38 95 1
44 95 1
38 96 1
45 96 1
39 97 1
45 97 1
39 98 1
46 98 1
40 99 1
46 99 1
40 100 1
47 100 1
41 101 1
47 101 1
41 102 1
48 102 1
42 103 1
48 103 1
42 104 1
81 104 1
43 105 1
77 105 1
43 106 1
49 106 1
44 107 1
49 107 1
44 108 1
50 108 1
45 109 1
50 109 1
45 110 1
51 110 1
46 111 1
51 111 1
46 112 1
52 112 1
47 113 1
52 113 1
47 114 1
53 114 1
48 115 1
53 115 1
48 116 1
54 116 1
54 117 1
81 117 1
55 118 1
77 118 1
49 119 1
55 119 1
49 120 1
56 120 1
50 121 1
56 121 1
50 122 1
57 122 1
51 123 1
57 123 1
51 124 1
58 124 1
52 125 1
58 125 1
52 126 1
59 126 1
53 127 1
59 127 1
53 128 1
60 128 1
54 129 1
60 129 1
54 130 1
80 130 1
55 131 1
78 131 1
55 132 1
61 132 1
56 133 1
61 133 1
56 134 1
62 134 1
57 135 1
62 135 1
57 136 1
63 136 1
58 137 1
63 137 1
58 138 1
64 138 1
59 139 1
64 139 1
59 140 1
65 140 1
60 141 1
65 141 1
60 142 1
66 142 1
66 143 1
80 143 1
67 144 1
78 144 1
61 145 1
67 145 1
61 146 1
68 146 1
62 147 1
68 147 1
62 148 1
69 148 1
63 149 1
69 149 1
63 150 1
70 150 1
64 151 1
70 151 1
64 152 1
71 152 1
65 153 1
71 153 1
65 154 1
72 154 1
66 155 1
72 155 1
66 156 1
79 156 1
67 157 1
67 158 1
68 159 1
68 160 1
69 161 1
69 162 1
70 163 1
70 164 1
71 165 1
71 166 1
72 167 1
72 168 1
79 169 1
