%%MatrixMarket matrix coordinate integer general
%
180 361 684
1 1 1
1 2 1
180 2 1
2 3 1
180 3 1
2 4 1
179 4 1
3 5 1
179 5 1
3 6 1
178 6 1
4 7 1
178 7 1
4 8 1
177 8 1
5 9 1
177 9 1
5 10 1
176 10 1
6 11 1
176 11 1
6 12 1
175 12 1
7 13 1
175 13 1
7 14 1
174 14 1
8 15 1
174 15 1
8 16 1
173 16 1
9 17 1
173 17 1
9 18 1
172 18 1
172 19 1
1 20 1
1 21 1
10 21 1
2 22 1
10 22 1
2 23 1
11 23 1
3 24 1
11 24 1
3 25 1
12 25 1
4 26 1
12 26 1
4 27 1
13 27 1
5 28 1
13 28 1
5 29 1
14 29 1
6 30 1
14 30 1
6 31 1
15 31 1
7 32 1
15 32 1
7 33 1
16 33 1
8 34 1
16 34 1
8 35 1
17 35 1
9 36 1
17 36 1
9 37 1
18 37 1
18 38 1
19 39 1
10 40 1
19 40 1
10 41 1
20 41 1
11 42 1
20 42 1
11 43 1
21 43 1
12 44 1
21 44 1
12 45 1
22 45 1
13 46 1
22 46 1
13 47 1
23 47 1
14 48 1
23 48 1
14 49 1
24 49 1
15 50 1
24 50 1
15 51 1
25 51 1
16 52 1
25 52 1
16 53 1
26 53 1
17 54 1
26 54 1
17 55 1
27 55 1
18 56 1
27 56 1
18 57 1
19 58 1
19 59 1
28 59 1
20 60 1
28 60 1
20 61 1
29 61 1
21 62 1
29 62 1
21 63 1
30 63 1
22 64 1
30 64 1
22 65 1
31 65 1
23 66 1
31 66 1
23 67 1
32 67 1
24 68 1
32 68 1
24 69 1
33 69 1
25 70 1
33 70 1
25 71 1
34 71 1
26 72 1
34 72 1
26 73 1
35 73 1
27 74 1
35 74 1
27 75 1
36 75 1
36 76 1
37 77 1
28 78 1
37 78 1
28 79 1
38 79 1
29 80 1
38 80 1
29 81 1
39 81 1
30 82 1
39 82 1
30 83 1
40 83 1
31 84 1
40 84 1
31 85 1
41 85 1
32 86 1
41 86 1
32 87 1
42 87 1
33 88 1
42 88 1
33 89 1
43 89 1
34 90 1
43 90 1
34 91 1
44 91 1
35 92 1
44 92 1
35 93 1
45 93 1
36 94 1
45 94 1
36 95 1
37 96 1
37 97 1
46 97 1
38 98 1
46 98 1
38 99 1
47 99 1
39 100 1
47 100 1
39 101 1
48 101 1
40 102 1
48 102 1
40 103 1
49 103 1
41 104 1
49 104 1
41 105 1
50 105 1
42 106 1
50 106 1
42 107 1
51 107 1
43 108 1
51 108 1
43 109 1
52 109 1
44 110 1
52 110 1
44 111 1
53 111 1
45 112 1
53 112 1
45 113 1
54 113 1
54 114 1
55 115 1
46 116 1
55 116 1
46 117 1
56 117 1
47 118 1
56 118 1
47 119 1
57 119 1
48 120 1
57 120 1
48 121 1
58 121 1
49 122 1
58 122 1
49 123 1
59 123 1
50 124 1
59 124 1
50 125 1
60 125 1
51 126 1
60 126 1
51 127 1
61 127 1
52 128 1
61 128 1
52 129 1
62 129 1
53 130 1
62 130 1
53 131 1
63 131 1
54 132 1
63 132 1
54 133 1
55 134 1
55 135 1
64 135 1
56 136 1
64 136 1
56 137 1
65 137 1
57 138 1
65 138 1
57 139 1
66 139 1
58 140 1
66 140 1
58 141 1
67 141 1
59 142 1
67 142 1
59 143 1
68 143 1
60 144 1
68 144 1
60 145 1
69 145 1
61 146 1
69 146 1
61 147 1
70 147 1
62 148 1
70 148 1
62 149 1
71 149 1
63 150 1
71 150 1
63 151 1
72 151 1
72 152 1
73 153 1
64 154 1
73 154 1
64 155 1
74 155 1
65 156 1
74 156 1
65 157 1
75 157 1
66 158 1
75 158 1
66 159 1
76 159 1
67 160 1
76 160 1
67 161 1
77 161 1
68 162 1
77 162 1
68 163 1
78 163 1
69 164 1
78 164 1
69 165 1
79 165 1
70 166 1
79 166 1
70 167 1
80 167 1
71 168 1
80 168 1
71 169 1
81 169 1
72 170 1
81 170 1
72 171 1
73 172 1
73 173 1
82 173 1
74 174 1
82 174 1
74 175 1
83 175 1
75 176 1
83 176 1
75 177 1
84 177 1
76 178 1
84 178 1
76 179 1
85 179 1
77 180 1
85 180 1
77 181 1
86 181 1
78 182 1
86 182 1
78 183 1
87 183 1
79 184 1
87 184 1
79 185 1
88 185 1
80 186 1
88 186 1
80 187 1
89 187 1
81 188 1
89 188 1
81 189 1
90 189 1
90 190 1
91 191 1
82 192 1
91 192 1
82 193 1
92 193 1
83 194 1
92 194 1
83 195 1
93 195 1
84 196 1
93 196 1
84 197 1
94 197 1
85 198 1
94 198 1
85 199 1
95 199 1
86 200 1
95 200 1
86 201 1
96 201 1
87 202 1
96 202 1
87 203 1
97 203 1
88 204 1
97 204 1
88 205 1
98 205 1
89 206 1
98 206 1
89 207 1
99 207 1
90 208 1
99 208 1
90 209 1
91 210 1
91 211 1
100 211 1
92 212 1
100 212 1
92 213 1
101 213 1
93 214 1
101 214 1
93 215 1
102 215 1
94 216 1
102 216 1
94 217 1
103 217 1
95 218 1
103 218 1
95 219 1
104 219 1
96 220 1
104 220 1
96 221 1
105 221 1
97 222 1
105 222 1
97 223 1
106 223 1
98 224 1
106 224 1
98 225 1
107 225 1
99 226 1
107 226 1
99 227 1
108 227 1
108 228 1
109 229 1
100 230 1
109 230 1
100 231 1
110 231 1
101 232 1
110 232 1
101 233 1
111 233 1
102 234 1
111 234 1
102 235 1
112 235 1
103 236 1
112 236 1
103 237 1
113 237 1
104 238 1
113 238 1
104 239 1
114 239 1
105 240 1
114 240 1
105 241 1
115 241 1
106 242 1
115 242 1
106 243 1
116 243 1
107 244 1
116 244 1
107 245 1
117 245 1
108 246 1
117 246 1
108 247 1
109 248 1
109 249 1
118 249 1
110 250 1
118 250 1
110 251 1
119 251 1
111 252 1
119 252 1
111 253 1
120 253 1
112 254 1
120 254 1
112 255 1
121 255 1
113 256 1
121 256 1
113 257 1
122 257 1
114 258 1
122 258 1
114 259 1
123 259 1
115 260 1
123 260 1
115 261 1
124 261 1
116 262 1
124 262 1
116 263 1
125 263 1
117 264 1
125 264 1
117 265 1
126 265 1
126 266 1
127 267 1
118 268 1
127 268 1
118 269 1
128 269 1
119 270 1
128 270 1
119 271 1
129 271 1
120 272 1
129 272 1
120 273 1
130 273 1
121 274 1
130 274 1
121 275 1
131 275 1
122 276 1
131 276 1
122 277 1
132 277 1
123 278 1
132 278 1
123 279 1
133 279 1
124 280 1
133 280 1
124 281 1
134 281 1
125 282 1
134 282 1
125 283 1
135 283 1
126 284 1
135 284 1
126 285 1
127 286 1
127 287 1
136 287 1
128 288 1
136 288 1
128 289 1
137 289 1
129 290 1
137 290 1
129 291 1
138 291 1
130 292 1
138 292 1
130 293 1
139 293 1
131 294 1
139 294 1
131 295 1
140 295 1
132 296 1
140 296 1
132 297 1
141 297 1
133 298 1
141 298 1
133 299 1
142 299 1
134 300 1
142 300 1
134 301 1
143 301 1
135 302 1
143 302 1
135 303 1
144 303 1
144 304 1
145 305 1
136 306 1
145 306 1
136 307 1
146 307 1
137 308 1
146 308 1
137 309 1
147 309 1
138 310 1
147 310 1
138 311 1
148 311 1
139 312 1
148 312 1
139 313 1
149 313 1
140 314 1
149 314 1
140 315 1
150 315 1
141 316 1
150 316 1
141 317 1
151 317 1
142 318 1
151 318 1
142 319 1
152 319 1
143 320 1
152 320 1
143 321 1
153 321 1
144 322 1
153 322 1
144 323 1
145 324 1
145 325 1
154 325 1
146 326 1
154 326 1
146 327 1
155 327 1
147 328 1
155 328 1
147 329 1
156 329 1
148 330 1
156 330 1
148 331 1
157 331 1
149 332 1
157 332 1
149 333 1
158 333 1
150 334 1
158 334 1
150 335 1
159 335 1
151 336 1
159 336 1
151 337 1
160 337 1
152 338 1
160 338 1
152 339 1
161 339 1
153 340 1
161 340 1
153 341 1
162 341 1
162 342 1
163 343 1
154 344 1
163 344 1
154 345 1
164 345 1
155 346 1
164 346 1
155 347 1
165 347 1
156 348 1
165 348 1
156 349 1
166 349 1
157 350 1
166 350 1
157 351 1
167 351 1
158 352 1
167 352 1
158 353 1
168 353 1
159 354 1
168 354 1
159 355 1
169 355 1
160 356 1
169 356 1
160 357 1
170 357 1
161 358 1
170 358 1
161 359 1
171 359 1
162 360 1
171 360 1
162 361 1
