%%MatrixMarket matrix coordinate integer general
%
40 81 144
33 1 1
1 2 1
1 3 1
2 4 1
2 5 1
3 6 1
3 7 1
4 8 1
4 9 1
5 10 1
33 10 1
1 11 1
5 11 1
1 12 1
6 12 1
2 13 1
6 13 1
2 14 1
7 14 1
3 15 1
7 15 1
3 16 1
8 16 1
4 17 1
8 17 1
4 18 1
40 18 1
5 19 1
34 19 1
5 20 1
9 20 1
6 21 1
9 21 1
6 22 1
10 22 1
7 23 1
10 23 1
7 24 1
11 24 1
8 25 1
11 25 1
8 26 1
12 26 1
12 27 1
40 27 1
13 28 1
34 28 1
9 29 1
13 29 1
9 30 1
14 30 1
10 31 1
14 31 1
10 32 1
15 32 1
11 33 1
15 33 1
11 34 1
16 34 1
12 35 1
16 35 1
12 36 1
39 36 1
13 37 1
35 37 1
13 38 1
17 38 1
14 39 1
17 39 1
14 40 1
18 40 1
15 41 1
18 41 1
15 42 1
19 42 1
16 43 1
19 43 1
16 44 1
20 44 1
20 45 1
39 45 1
21 46 1
35 46 1
17 47 1
21 47 1
17 48 1
22 48 1
18 49 1
22 49 1
18 50 1
23 50 1
19 51 1
23 51 1
19 52 1
24 52 1
20 53 1
24 53 1
20 54 1
38 54 1
21 55 1
36 55 1
21 56 1
25 56 1
22 57 1
25 57 1
22 58 1
26 58 1
23 59 1
26 59 1
23 60 1
27 60 1
24 61 1
27 61 1
24 62 1
28 62 1
28 63 1
38 63 1
29 64 1
36 64 1
25 65 1
29 65 1
25 66 1
30 66 1
26 67 1
30 67 1
26 68 1
31 68 1
27 69 1
31 69 1
27 70 1
32 70 1
28 71 1
32 71 1
28 72 1
37 72 1
29 73 1
29 74 1
30 75 1
30 76 1
31 77 1
31 78 1
32 79 1
32 80 1
37 81 1
