%%MatrixMarket matrix coordinate integer general
%
180 361 684
163 1 1
1 2 1
1 3 1
2 4 1
2 5 1
3 6 1
3 7 1
4 8 1
4 9 1
5 10 1
5 11 1
6 12 1
6 13 1
7 14 1
7 15 1
8 16 1
8 17 1
9 18 1
9 19 1
10 20 1
163 20 1
1 21 1
10 21 1
1 22 1
11 22 1
2 23 1
11 23 1
2 24 1
12 24 1
3 25 1
12 25 1
3 26 1
13 26 1
4 27 1
13 27 1
4 28 1
14 28 1
5 29 1
14 29 1
5 30 1
15 30 1
6 31 1
15 31 1
6 32 1
16 32 1
7 33 1
16 33 1
7 34 1
17 34 1
8 35 1
17 35 1
8 36 1
18 36 1
9 37 1
18 37 1
9 38 1
180 38 1
10 39 1
164 39 1
10 40 1
19 40 1
11 41 1
19 41 1
11 42 1
20 42 1
12 43 1
20 43 1
12 44 1
21 44 1
13 45 1
21 45 1
13 46 1
22 46 1
14 47 1
22 47 1
14 48 1
23 48 1
15 49 1
23 49 1
15 50 1
24 50 1
16 51 1
24 51 1
16 52 1
25 52 1
17 53 1
25 53 1
17 54 1
26 54 1
18 55 1
26 55 1
18 56 1
27 56 1
27 57 1
180 57 1
28 58 1
164 58 1
19 59 1
28 59 1
19 60 1
29 60 1
20 61 1
29 61 1
20 62 1
30 62 1
21 63 1
30 63 1
21 64 1
31 64 1
22 65 1
31 65 1
22 66 1
32 66 1
23 67 1
32 67 1
23 68 1
33 68 1
24 69 1
33 69 1
24 70 1
34 70 1
25 71 1
34 71 1
25 72 1
35 72 1
26 73 1
35 73 1
26 74 1
36 74 1
27 75 1
36 75 1
27 76 1
179 76 1
28 77 1
165 77 1
28 78 1
37 78 1
29 79 1
37 79 1
29 80 1
38 80 1
30 81 1
38 81 1
30 82 1
39 82 1
31 83 1
39 83 1
31 84 1
40 84 1
32 85 1
40 85 1
32 86 1
41 86 1
33 87 1
41 87 1
33 88 1
42 88 1
34 89 1
42 89 1
34 90 1
43 90 1
35 91 1
43 91 1
35 92 1
44 92 1
36 93 1
44 93 1
36 94 1
45 94 1
45 95 1
179 95 1
46 96 1
165 96 1
37 97 1
46 97 1
37 98 1
47 98 1
38 99 1
47 99 1
38 100 1
48 100 1
39 101 1
48 101 1
39 102 1
49 102 1
40 103 1
49 103 1
40 104 1
50 104 1
41 105 1
50 105 1
41 106 1
51 106 1
42 107 1
51 107 1
42 108 1
52 108 1
43 109 1
52 109 1
43 110 1
53 110 1
44 111 1
53 111 1
44 112 1
54 112 1
45 113 1
54 113 1
45 114 1
178 114 1
46 115 1
166 115 1
46 116 1
55 116 1
47 117 1
55 117 1
47 118 1
56 118 1
48 119 1
56 119 1
48 120 1
57 120 1
49 121 1
57 121 1
49 122 1
58 122 1
50 123 1
58 123 1
50 124 1
59 124 1
51 125 1
59 125 1
51 126 1
60 126 1
52 127 1
60 127 1
52 128 1
61 128 1
53 129 1
61 129 1
53 130 1
62 130 1
54 131 1
62 131 1
54 132 1
63 132 1
63 133 1
178 133 1
64 134 1
166 134 1
55 135 1
64 135 1
55 136 1
65 136 1
56 137 1
65 137 1
56 138 1
66 138 1
57 139 1
66 139 1
57 140 1
67 140 1
58 141 1
67 141 1
58 142 1
68 142 1
59 143 1
68 143 1
59 144 1
69 144 1
60 145 1
69 145 1
60 146 1
70 146 1
61 147 1
70 147 1
61 148 1
71 148 1
62 149 1
71 149 1
62 150 1
72 150 1
63 151 1
72 151 1
63 152 1
177 152 1
64 153 1
167 153 1
64 154 1
73 154 1
65 155 1
73 155 1
65 156 1
74 156 1
66 157 1
74 157 1
66 158 1
75 158 1
67 159 1
75 159 1
67 160 1
76 160 1
68 161 1
76 161 1
68 162 1
77 162 1
69 163 1
77 163 1
69 164 1
78 164 1
70 165 1
78 165 1
70 166 1
79 166 1
71 167 1
79 167 1
71 168 1
80 168 1
72 169 1
80 169 1
72 170 1
81 170 1
81 171 1
177 171 1
82 172 1
167 172 1
73 173 1
82 173 1
73 174 1
83 174 1
74 175 1
83 175 1
74 176 1
84 176 1
75 177 1
84 177 1
75 178 1
85 178 1
76 179 1
85 179 1
76 180 1
86 180 1
77 181 1
86 181 1
77 182 1
87 182 1
78 183 1
87 183 1
78 184 1
88 184 1
79 185 1
88 185 1
79 186 1
89 186 1
80 187 1
89 187 1
80 188 1
90 188 1
81 189 1
90 189 1
81 190 1
176 190 1
82 191 1
168 191 1
82 192 1
91 192 1
83 193 1
91 193 1
83 194 1
92 194 1
84 195 1
92 195 1
84 196 1
93 196 1
85 197 1
93 197 1
85 198 1
94 198 1
86 199 1
94 199 1
86 200 1
95 200 1
87 201 1
95 201 1
87 202 1
96 202 1
88 203 1
96 203 1
88 204 1
97 204 1
89 205 1
97 205 1
89 206 1
98 206 1
90 207 1
98 207 1
90 208 1
99 208 1
99 209 1
176 209 1
100 210 1
168 210 1
91 211 1
100 211 1
91 212 1
101 212 1
92 213 1
101 213 1
92 214 1
102 214 1
93 215 1
102 215 1
93 216 1
103 216 1
94 217 1
103 217 1
94 218 1
104 218 1
95 219 1
104 219 1
95 220 1
105 220 1
96 221 1
105 221 1
96 222 1
106 222 1
97 223 1
106 223 1
97 224 1
107 224 1
98 225 1
107 225 1
98 226 1
108 226 1
99 227 1
108 227 1
99 228 1
175 228 1
100 229 1
169 229 1
100 230 1
109 230 1
101 231 1
109 231 1
101 232 1
110 232 1
102 233 1
110 233 1
102 234 1
111 234 1
103 235 1
111 235 1
103 236 1
112 236 1
104 237 1
112 237 1
104 238 1
113 238 1
105 239 1
113 239 1
105 240 1
114 240 1
106 241 1
114 241 1
106 242 1
115 242 1
107 243 1
115 243 1
107 244 1
116 244 1
108 245 1
116 245 1
108 246 1
117 246 1
117 247 1
175 247 1
118 248 1
169 248 1
109 249 1
118 249 1
109 250 1
119 250 1
110 251 1
119 251 1
110 252 1
120 252 1
111 253 1
120 253 1
111 254 1
121 254 1
112 255 1
121 255 1
112 256 1
122 256 1
113 257 1
122 257 1
113 258 1
123 258 1
114 259 1
123 259 1
114 260 1
124 260 1
115 261 1
124 261 1
115 262 1
125 262 1
116 263 1
125 263 1
116 264 1
126 264 1
117 265 1
126 265 1
117 266 1
174 266 1
118 267 1
170 267 1
118 268 1
127 268 1
119 269 1
127 269 1
119 270 1
128 270 1
120 271 1
128 271 1
120 272 1
129 272 1
121 273 1
129 273 1
121 274 1
130 274 1
122 275 1
130 275 1
122 276 1
131 276 1
123 277 1
131 277 1
123 278 1
132 278 1
124 279 1
132 279 1
124 280 1
133 280 1
125 281 1
133 281 1
125 282 1
134 282 1
126 283 1
134 283 1
126 284 1
135 284 1
135 285 1
174 285 1
136 286 1
170 286 1
127 287 1
136 287 1
127 288 1
137 288 1
128 289 1
137 289 1
128 290 1
138 290 1
129 291 1
138 291 1
129 292 1
139 292 1
130 293 1
139 293 1
130 294 1
140 294 1
131 295 1
140 295 1
131 296 1
141 296 1
132 297 1
141 297 1
132 298 1
142 298 1
133 299 1
142 299 1
133 300 1
143 300 1
134 301 1
143 301 1
134 302 1
144 302 1
135 303 1
144 303 1
135 304 1
173 304 1
136 305 1
171 305 1
136 306 1
145 306 1
137 307 1
145 307 1
137 308 1
146 308 1
138 309 1
146 309 1
138 310 1
147 310 1
139 311 1
147 311 1
139 312 1
148 312 1
140 313 1
148 313 1
140 314 1
149 314 1
141 315 1
149 315 1
141 316 1
150 316 1
142 317 1
150 317 1
142 318 1
151 318 1
143 319 1
151 319 1
143 320 1
152 320 1
144 321 1
152 321 1
144 322 1
153 322 1
153 323 1
173 323 1
154 324 1
171 324 1
145 325 1
154 325 1
145 326 1
155 326 1
146 327 1
155 327 1
146 328 1
156 328 1
147 329 1
156 329 1
147 330 1
157 330 1
148 331 1
157 331 1
148 332 1
158 332 1
149 333 1
158 333 1
149 334 1
159 334 1
150 335 1
159 335 1
150 336 1
160 336 1
151 337 1
160 337 1
151 338 1
161 338 1
152 339 1
161 339 1
152 340 1
162 340 1
153 341 1
162 341 1
153 342 1
172 342 1
154 343 1
154 344 1
155 345 1
155 346 1
156 347 1
156 348 1
157 349 1
157 350 1
158 351 1
158 352 1
159 353 1
159 354 1
160 355 1
160 356 1
161 357 1
161 358 1
162 359 1
162 360 1
172 361 1
