%%MatrixMarket matrix coordinate integer general
%
144 289 544
129 1 1
1 2 1
1 3 1
2 4 1
2 5 1
3 6 1
3 7 1
4 8 1
4 9 1
5 10 1
5 11 1
6 12 1
6 13 1
7 14 1
7 15 1
8 16 1
8 17 1
9 18 1
129 18 1
1 19 1
9 19 1
1 20 1
10 20 1
2 21 1
10 21 1
2 22 1
11 22 1
3 23 1
11 23 1
3 24 1
12 24 1
4 25 1
12 25 1
4 26 1
13 26 1
5 27 1
13 27 1
5 28 1
14 28 1
6 29 1
14 29 1
6 30 1
15 30 1
7 31 1
15 31 1
7 32 1
16 32 1
8 33 1
16 33 1
8 34 1
144 34 1
9 35 1
130 35 1
9 36 1
17 36 1
10 37 1
17 37 1
10 38 1
18 38 1
11 39 1
18 39 1
11 40 1
19 40 1
12 41 1
19 41 1
12 42 1
20 42 1
13 43 1
20 43 1
13 44 1
21 44 1
14 45 1
21 45 1
14 46 1
22 46 1
15 47 1
22 47 1
15 48 1
23 48 1
16 49 1
23 49 1
16 50 1
24 50 1
24 51 1
144 51 1
25 52 1
130 52 1
17 53 1
25 53 1
17 54 1
26 54 1
18 55 1
26 55 1
18 56 1
27 56 1
19 57 1
27 57 1
19 58 1
28 58 1
20 59 1
28 59 1
20 60 1
29 60 1
21 61 1
29 61 1
21 62 1
30 62 1
22 63 1
30 63 1
22 64 1
31 64 1
23 65 1
31 65 1
23 66 1
32 66 1
24 67 1
32 67 1
24 68 1
143 68 1
25 69 1
131 69 1
25 70 1
33 70 1
26 71 1
33 71 1
26 72 1
34 72 1
27 73 1
34 73 1
27 74 1
35 74 1
28 75 1
35 75 1
28 76 1
36 76 1
29 77 1
36 77 1
29 78 1
37 78 1
30 79 1
37 79 1
30 80 1
38 80 1
31 81 1
38 81 1
31 82 1
39 82 1
32 83 1
39 83 1
32 84 1
40 84 1
40 85 1
143 85 1
41 86 1
131 86 1
33 87 1
41 87 1
33 88 1
42 88 1
34 89 1
42 89 1
34 90 1
43 90 1
35 91 1
43 91 1
35 92 1
44 92 1
36 93 1
44 93 1
36 94 1
45 94 1
37 95 1
45 95 1
37 96 1
46 96 1
38 97 1
46 97 1
38 98 1
47 98 1
39 99 1
47 99 1
39 100 1
48 100 1
40 101 1
48 101 1
40 102 1
142 102 1
41 103 1
132 103 1
41 104 1
49 104 1
42 105 1
49 105 1
42 106 1
50 106 1
43 107 1
50 107 1
43 108 1
51 108 1
44 109 1
51 109 1
44 110 1
52 110 1
45 111 1
52 111 1
45 112 1
53 112 1
46 113 1
53 113 1
46 114 1
54 114 1
47 115 1
54 115 1
47 116 1
55 116 1
48 117 1
55 117 1
48 118 1
56 118 1
56 119 1
142 119 1
57 120 1
132 120 1
49 121 1
57 121 1
49 122 1
58 122 1
50 123 1
58 123 1
50 124 1
59 124 1
51 125 1
59 125 1
51 126 1
60 126 1
52 127 1
60 127 1
52 128 1
61 128 1
53 129 1
61 129 1
53 130 1
62 130 1
54 131 1
62 131 1
54 132 1
63 132 1
55 133 1
63 133 1
55 134 1
64 134 1
56 135 1
64 135 1
56 136 1
141 136 1
57 137 1
133 137 1
57 138 1
65 138 1
58 139 1
65 139 1
58 140 1
66 140 1
59 141 1
66 141 1
59 142 1
67 142 1
60 143 1
67 143 1
60 144 1
68 144 1
61 145 1
68 145 1
61 146 1
69 146 1
62 147 1
69 147 1
62 148 1
70 148 1
63 149 1
70 149 1
63 150 1
71 150 1
64 151 1
71 151 1
64 152 1
72 152 1
72 153 1
141 153 1
73 154 1
133 154 1
65 155 1
73 155 1
65 156 1
74 156 1
66 157 1
74 157 1
66 158 1
75 158 1
67 159 1
75 159 1
67 160 1
76 160 1
68 161 1
76 161 1
68 162 1
77 162 1
69 163 1
77 163 1
69 164 1
78 164 1
70 165 1
78 165 1
70 166 1
79 166 1
71 167 1
79 167 1
71 168 1
80 168 1
72 169 1
80 169 1
72 170 1
140 170 1
73 171 1
134 171 1
73 172 1
81 172 1
74 173 1
81 173 1
74 174 1
82 174 1
75 175 1
82 175 1
75 176 1
83 176 1
76 177 1
83 177 1
76 178 1
84 178 1
77 179 1
84 179 1
77 180 1
85 180 1
78 181 1
85 181 1
78 182 1
86 182 1
79 183 1
86 183 1
79 184 1
87 184 1
80 185 1
87 185 1
80 186 1
88 186 1
88 187 1
140 187 1
89 188 1
134 188 1
81 189 1
89 189 1
81 190 1
90 190 1
82 191 1
90 191 1
82 192 1
91 192 1
83 193 1
91 193 1
83 194 1
92 194 1
84 195 1
92 195 1
84 196 1
93 196 1
85 197 1
93 197 1
85 198 1
94 198 1
86 199 1
94 199 1
86 200 1
95 200 1
87 201 1
95 201 1
87 202 1
96 202 1
88 203 1
96 203 1
88 204 1
139 204 1
89 205 1
135 205 1
89 206 1
97 206 1
90 207 1
97 207 1
90 208 1
98 208 1
91 209 1
98 209 1
91 210 1
99 210 1
92 211 1
99 211 1
92 212 1
100 212 1
93 213 1
100 213 1
93 214 1
101 214 1
94 215 1
101 215 1
94 216 1
102 216 1
95 217 1
102 217 1
95 218 1
103 218 1
96 219 1
103 219 1
96 220 1
104 220 1
104 221 1
139 221 1
105 222 1
135 222 1
97 223 1
105 223 1
97 224 1
106 224 1
98 225 1
106 225 1
98 226 1
107 226 1
99 227 1
107 227 1
99 228 1
108 228 1
100 229 1
108 229 1
100 230 1
109 230 1
101 231 1
109 231 1
101 232 1
110 232 1
102 233 1
110 233 1
102 234 1
111 234 1
103 235 1
111 235 1
103 236 1
112 236 1
104 237 1
112 237 1
104 238 1
138 238 1
105 239 1
136 239 1
105 240 1
113 240 1
106 241 1
113 241 1
106 242 1
114 242 1
107 243 1
114 243 1
107 244 1
115 244 1
108 245 1
115 245 1
108 246 1
116 246 1
109 247 1
116 247 1
109 248 1
117 248 1
110 249 1
117 249 1
110 250 1
118 250 1
111 251 1
118 251 1
111 252 1
119 252 1
112 253 1
119 253 1
112 254 1
120 254 1
120 255 1
138 255 1
121 256 1
136 256 1
113 257 1
121 257 1
113 258 1
122 258 1
114 259 1
122 259 1
114 260 1
123 260 1
115 261 1
123 261 1
115 262 1
124 262 1
116 263 1
124 263 1
116 264 1
125 264 1
117 265 1
125 265 1
117 266 1
126 266 1
118 267 1
126 267 1
118 268 1
127 268 1
119 269 1
127 269 1
119 270 1
128 270 1
120 271 1
128 271 1
120 272 1
137 272 1
121 273 1
121 274 1
122 275 1
122 276 1
123 277 1
123 278 1
124 279 1
124 280 1
125 281 1
125 282 1
126 283 1
126 284 1
127 285 1
127 286 1
128 287 1
128 288 1
137 289 1
