%%MatrixMarket matrix coordinate integer general
%
24 49 84
1 1 1
1 2 1
24 2 1
2 3 1
24 3 1
2 4 1
23 4 1
3 5 1
23 5 1
3 6 1
22 6 1
22 7 1
1 8 1
1 9 1
4 9 1
2 10 1
4 10 1
2 11 1
5 11 1
3 12 1
5 12 1
3 13 1
6 13 1
6 14 1
7 15 1
4 16 1
7 16 1
4 17 1
8 17 1
5 18 1
8 18 1
5 19 1
9 19 1
6 20 1
9 20 1
6 21 1
7 22 1
7 23 1
10 23 1
8 24 1
10 24 1
8 25 1
11 25 1
9 26 1
11 26 1
9 27 1
12 27 1
12 28 1
13 29 1
10 30 1
13 30 1
10 31 1
14 31 1
11 32 1
14 32 1
11 33 1
15 33 1
12 34 1
15 34 1
12 35 1
13 36 1
13 37 1
16 37 1
14 38 1
16 38 1
14 39 1
17 39 1
15 40 1
17 40 1
15 41 1
18 41 1
18 42 1
19 43 1
16 44 1
19 44 1
16 45 1
20 45 1
17 46 1
20 46 1
17 47 1
21 47 1
18 48 1
21 48 1
18 49 1
