%%MatrixMarket matrix coordinate integer general
%
144 289 544
1 1 1
1 2 1
144 2 1
2 3 1
144 3 1
2 4 1
143 4 1
3 5 1
143 5 1
3 6 1
142 6 1
4 7 1
142 7 1
4 8 1
141 8 1
5 9 1
141 9 1
5 10 1
140 10 1
6 11 1
140 11 1
6 12 1
139 12 1
7 13 1
139 13 1
7 14 1
138 14 1
8 15 1
138 15 1
8 16 1
137 16 1
137 17 1
1 18 1
1 19 1
9 19 1
2 20 1
9 20 1
2 21 1
10 21 1
3 22 1
10 22 1
3 23 1
11 23 1
4 24 1
11 24 1
4 25 1
12 25 1
5 26 1
12 26 1
5 27 1
13 27 1
6 28 1
13 28 1
6 29 1
14 29 1
7 30 1
14 30 1
7 31 1
15 31 1
8 32 1
15 32 1
8 33 1
16 33 1
16 34 1
17 35 1
9 36 1
17 36 1
9 37 1
18 37 1
10 38 1
18 38 1
10 39 1
19 39 1
11 40 1
19 40 1
11 41 1
20 41 1
12 42 1
20 42 1
12 43 1
21 43 1
13 44 1
21 44 1
13 45 1
22 45 1
14 46 1
22 46 1
14 47 1
23 47 1
15 48 1
23 48 1
15 49 1
24 49 1
16 50 1
24 50 1
16 51 1
17 52 1
17 53 1
25 53 1
18 54 1
25 54 1
18 55 1
26 55 1
19 56 1
26 56 1
19 57 1
27 57 1
20 58 1
27 58 1
20 59 1
28 59 1
21 60 1
28 60 1
21 61 1
29 61 1
22 62 1
29 62 1
22 63 1
30 63 1
23 64 1
30 64 1
23 65 1
31 65 1
24 66 1
31 66 1
24 67 1
32 67 1
32 68 1
33 69 1
25 70 1
33 70 1
25 71 1
34 71 1
26 72 1
34 72 1
26 73 1
35 73 1
27 74 1
35 74 1
27 75 1
36 75 1
28 76 1
36 76 1
28 77 1
37 77 1
29 78 1
37 78 1
29 79 1
38 79 1
30 80 1
38 80 1
30 81 1
39 81 1
31 82 1
39 82 1
31 83 1
40 83 1
32 84 1
40 84 1
32 85 1
33 86 1
33 87 1
41 87 1
34 88 1
41 88 1
34 89 1
42 89 1
35 90 1
42 90 1
35 91 1
43 91 1
36 92 1
43 92 1
36 93 1
44 93 1
37 94 1
44 94 1
37 95 1
45 95 1
38 96 1
45 96 1
38 97 1
46 97 1
39 98 1
46 98 1
39 99 1
47 99 1
40 100 1
47 100 1
40 101 1
48 101 1
48 102 1
49 103 1
41 104 1
49 104 1
41 105 1
50 105 1
42 106 1
50 106 1
42 107 1
51 107 1
43 108 1
51 108 1
43 109 1
52 109 1
44 110 1
52 110 1
44 111 1
53 111 1
45 112 1
53 112 1
45 113 1
54 113 1
46 114 1
54 114 1
46 115 1
55 115 1
47 116 1
55 116 1
47 117 1
56 117 1
48 118 1
56 118 1
48 119 1
49 120 1
49 121 1
57 121 1
50 122 1
57 122 1
50 123 1
58 123 1
51 124 1
58 124 1
51 125 1
59 125 1
52 126 1
59 126 1
52 127 1
60 127 1
53 128 1
60 128 1
53 129 1
61 129 1
54 130 1
61 130 1
54 131 1
62 131 1
55 132 1
62 132 1
55 133 1
63 133 1
56 134 1
63 134 1
56 135 1
64 135 1
64 136 1
65 137 1
57 138 1
65 138 1
57 139 1
66 139 1
58 140 1
66 140 1
58 141 1
67 141 1
59 142 1
67 142 1
59 143 1
68 143 1
60 144 1
68 144 1
60 145 1
69 145 1
61 146 1
69 146 1
61 147 1
70 147 1
62 148 1
70 148 1
62 149 1
71 149 1
63 150 1
71 150 1
63 151 1
72 151 1
64 152 1
72 152 1
64 153 1
65 154 1
65 155 1
73 155 1
66 156 1
73 156 1
66 157 1
74 157 1
67 158 1
74 158 1
67 159 1
75 159 1
68 160 1
75 160 1
68 161 1
76 161 1
69 162 1
76 162 1
69 163 1
77 163 1
70 164 1
77 164 1
70 165 1
78 165 1
71 166 1
78 166 1
71 167 1
79 167 1
72 168 1
79 168 1
72 169 1
80 169 1
80 170 1
81 171 1
73 172 1
81 172 1
73 173 1
82 173 1
74 174 1
82 174 1
74 175 1
83 175 1
75 176 1
83 176 1
75 177 1
84 177 1
76 178 1
84 178 1
76 179 1
85 179 1
77 180 1
85 180 1
77 181 1
86 181 1
78 182 1
86 182 1
78 183 1
87 183 1
79 184 1
87 184 1
79 185 1
88 185 1
80 186 1
88 186 1
80 187 1
81 188 1
81 189 1
89 189 1
82 190 1
89 190 1
82 191 1
90 191 1
83 192 1
90 192 1
83 193 1
91 193 1
84 194 1
91 194 1
84 195 1
92 195 1
85 196 1
92 196 1
85 197 1
93 197 1
86 198 1
93 198 1
86 199 1
94 199 1
87 200 1
94 200 1
87 201 1
95 201 1
88 202 1
95 202 1
88 203 1
96 203 1
96 204 1
97 205 1
89 206 1
97 206 1
89 207 1
98 207 1
90 208 1
98 208 1
90 209 1
99 209 1
91 210 1
99 210 1
91 211 1
100 211 1
92 212 1
100 212 1
92 213 1
101 213 1
93 214 1
101 214 1
93 215 1
102 215 1
94 216 1
102 216 1
94 217 1
103 217 1
95 218 1
103 218 1
95 219 1
104 219 1
96 220 1
104 220 1
96 221 1
97 222 1
97 223 1
105 223 1
98 224 1
105 224 1
98 225 1
106 225 1
99 226 1
106 226 1
99 227 1
107 227 1
100 228 1
107 228 1
100 229 1
108 229 1
101 230 1
108 230 1
101 231 1
109 231 1
102 232 1
109 232 1
102 233 1
110 233 1
103 234 1
110 234 1
103 235 1
111 235 1
104 236 1
111 236 1
104 237 1
112 237 1
112 238 1
113 239 1
105 240 1
113 240 1
105 241 1
114 241 1
106 242 1
114 242 1
106 243 1
115 243 1
107 244 1
115 244 1
107 245 1
116 245 1
108 246 1
116 246 1
108 247 1
117 247 1
109 248 1
117 248 1
109 249 1
118 249 1
110 250 1
118 250 1
110 251 1
119 251 1
111 252 1
119 252 1
111 253 1
120 253 1
112 254 1
120 254 1
112 255 1
113 256 1
113 257 1
121 257 1
114 258 1
121 258 1
114 259 1
122 259 1
115 260 1
122 260 1
115 261 1
123 261 1
116 262 1
123 262 1
116 263 1
124 263 1
117 264 1
124 264 1
117 265 1
125 265 1
118 266 1
125 266 1
118 267 1
126 267 1
119 268 1
126 268 1
119 269 1
127 269 1
120 270 1
127 270 1
120 271 1
128 271 1
128 272 1
129 273 1
121 274 1
129 274 1
121 275 1
130 275 1
122 276 1
130 276 1
122 277 1
131 277 1
123 278 1
131 278 1
123 279 1
132 279 1
124 280 1
132 280 1
124 281 1
133 281 1
125 282 1
133 282 1
125 283 1
134 283 1
126 284 1
134 284 1
126 285 1
135 285 1
127 286 1
135 286 1
127 287 1
136 287 1
128 288 1
136 288 1
128 289 1
