%%MatrixMarket matrix coordinate integer general
%
60 121 220
51 1 1
1 2 1
1 3 1
2 4 1
2 5 1
3 6 1
3 7 1
4 8 1
4 9 1
5 10 1
5 11 1
6 12 1
51 12 1
1 13 1
6 13 1
1 14 1
7 14 1
2 15 1
7 15 1
2 16 1
8 16 1
3 17 1
8 17 1
3 18 1
9 18 1
4 19 1
9 19 1
4 20 1
10 20 1
5 21 1
10 21 1
5 22 1
60 22 1
6 23 1
52 23 1
6 24 1
11 24 1
7 25 1
11 25 1
7 26 1
12 26 1
8 27 1
12 27 1
8 28 1
13 28 1
9 29 1
13 29 1
9 30 1
14 30 1
10 31 1
14 31 1
10 32 1
15 32 1
15 33 1
60 33 1
16 34 1
52 34 1
11 35 1
16 35 1
11 36 1
17 36 1
12 37 1
17 37 1
12 38 1
18 38 1
13 39 1
18 39 1
13 40 1
19 40 1
14 41 1
19 41 1
14 42 1
20 42 1
15 43 1
20 43 1
15 44 1
59 44 1
16 45 1
53 45 1
16 46 1
21 46 1
17 47 1
21 47 1
17 48 1
22 48 1
18 49 1
22 49 1
18 50 1
23 50 1
19 51 1
23 51 1
19 52 1
24 52 1
20 53 1
24 53 1
20 54 1
25 54 1
25 55 1
59 55 1
26 56 1
53 56 1
21 57 1
26 57 1
21 58 1
27 58 1
22 59 1
27 59 1
22 60 1
28 60 1
23 61 1
28 61 1
23 62 1
29 62 1
24 63 1
29 63 1
24 64 1
30 64 1
25 65 1
30 65 1
25 66 1
58 66 1
26 67 1
54 67 1
26 68 1
31 68 1
27 69 1
31 69 1
27 70 1
32 70 1
28 71 1
32 71 1
28 72 1
33 72 1
29 73 1
33 73 1
29 74 1
34 74 1
30 75 1
34 75 1
30 76 1
35 76 1
35 77 1
58 77 1
36 78 1
54 78 1
31 79 1
36 79 1
31 80 1
37 80 1
32 81 1
37 81 1
32 82 1
38 82 1
33 83 1
38 83 1
33 84 1
39 84 1
34 85 1
39 85 1
34 86 1
40 86 1
35 87 1
40 87 1
35 88 1
57 88 1
36 89 1
55 89 1
36 90 1
41 90 1
37 91 1
41 91 1
37 92 1
42 92 1
38 93 1
42 93 1
38 94 1
43 94 1
39 95 1
43 95 1
39 96 1
44 96 1
40 97 1
44 97 1
40 98 1
45 98 1
45 99 1
57 99 1
46 100 1
55 100 1
41 101 1
46 101 1
41 102 1
47 102 1
42 103 1
47 103 1
42 104 1
48 104 1
43 105 1
48 105 1
43 106 1
49 106 1
44 107 1
49 107 1
44 108 1
50 108 1
45 109 1
50 109 1
45 110 1
56 110 1
46 111 1
46 112 1
47 113 1
47 114 1
48 115 1
48 116 1
49 117 1
49 118 1
50 119 1
50 120 1
56 121 1
