%%MatrixMarket matrix coordinate integer general
%
112 225 420
1 1 1
1 2 1
112 2 1
2 3 1
112 3 1
2 4 1
111 4 1
3 5 1
111 5 1
3 6 1
110 6 1
4 7 1
110 7 1
4 8 1
109 8 1
5 9 1
109 9 1
5 10 1
108 10 1
6 11 1
108 11 1
6 12 1
107 12 1
7 13 1
107 13 1
7 14 1
106 14 1
106 15 1
1 16 1
1 17 1
8 17 1
2 18 1
8 18 1
2 19 1
9 19 1
3 20 1
9 20 1
3 21 1
10 21 1
4 22 1
10 22 1
4 23 1
11 23 1
5 24 1
11 24 1
5 25 1
12 25 1
6 26 1
12 26 1
6 27 1
13 27 1
7 28 1
13 28 1
7 29 1
14 29 1
14 30 1
15 31 1
8 32 1
15 32 1
8 33 1
16 33 1
9 34 1
16 34 1
9 35 1
17 35 1
10 36 1
17 36 1
10 37 1
18 37 1
11 38 1
18 38 1
11 39 1
19 39 1
12 40 1
19 40 1
12 41 1
20 41 1
13 42 1
20 42 1
13 43 1
21 43 1
14 44 1
21 44 1
14 45 1
15 46 1
15 47 1
22 47 1
16 48 1
22 48 1
16 49 1
23 49 1
17 50 1
23 50 1
17 51 1
24 51 1
18 52 1
24 52 1
18 53 1
25 53 1
19 54 1
25 54 1
19 55 1
26 55 1
20 56 1
26 56 1
20 57 1
27 57 1
21 58 1
27 58 1
21 59 1
28 59 1
28 60 1
29 61 1
22 62 1
29 62 1
22 63 1
30 63 1
23 64 1
30 64 1
23 65 1
31 65 1
24 66 1
31 66 1
24 67 1
32 67 1
25 68 1
32 68 1
25 69 1
33 69 1
26 70 1
33 70 1
26 71 1
34 71 1
27 72 1
34 72 1
27 73 1
35 73 1
28 74 1
35 74 1
28 75 1
29 76 1
29 77 1
36 77 1
30 78 1
36 78 1
30 79 1
37 79 1
31 80 1
37 80 1
31 81 1
38 81 1
32 82 1
38 82 1
32 83 1
39 83 1
33 84 1
39 84 1
33 85 1
40 85 1
34 86 1
40 86 1
34 87 1
41 87 1
35 88 1
41 88 1
35 89 1
42 89 1
42 90 1
43 91 1
36 92 1
43 92 1
36 93 1
44 93 1
37 94 1
44 94 1
37 95 1
45 95 1
38 96 1
45 96 1
38 97 1
46 97 1
39 98 1
46 98 1
39 99 1
47 99 1
40 100 1
47 100 1
40 101 1
48 101 1
41 102 1
48 102 1
41 103 1
49 103 1
42 104 1
49 104 1
42 105 1
43 106 1
43 107 1
50 107 1
44 108 1
50 108 1
44 109 1
51 109 1
45 110 1
51 110 1
45 111 1
52 111 1
46 112 1
52 112 1
46 113 1
53 113 1
47 114 1
53 114 1
47 115 1
54 115 1
48 116 1
54 116 1
48 117 1
55 117 1
49 118 1
55 118 1
49 119 1
56 119 1
56 120 1
57 121 1
50 122 1
57 122 1
50 123 1
58 123 1
51 124 1
58 124 1
51 125 1
59 125 1
52 126 1
59 126 1
52 127 1
60 127 1
53 128 1
60 128 1
53 129 1
61 129 1
54 130 1
61 130 1
54 131 1
62 131 1
55 132 1
62 132 1
55 133 1
63 133 1
56 134 1
63 134 1
56 135 1
57 136 1
57 137 1
64 137 1
58 138 1
64 138 1
58 139 1
65 139 1
59 140 1
65 140 1
59 141 1
66 141 1
60 142 1
66 142 1
60 143 1
67 143 1
61 144 1
67 144 1
61 145 1
68 145 1
62 146 1
68 146 1
62 147 1
69 147 1
63 148 1
69 148 1
63 149 1
70 149 1
70 150 1
71 151 1
64 152 1
71 152 1
64 153 1
72 153 1
65 154 1
72 154 1
65 155 1
73 155 1
66 156 1
73 156 1
66 157 1
74 157 1
67 158 1
74 158 1
67 159 1
75 159 1
68 160 1
75 160 1
68 161 1
76 161 1
69 162 1
76 162 1
69 163 1
77 163 1
70 164 1
77 164 1
70 165 1
71 166 1
71 167 1
78 167 1
72 168 1
78 168 1
72 169 1
79 169 1
73 170 1
79 170 1
73 171 1
80 171 1
74 172 1
80 172 1
74 173 1
81 173 1
75 174 1
81 174 1
75 175 1
82 175 1
76 176 1
82 176 1
76 177 1
83 177 1
77 178 1
83 178 1
77 179 1
84 179 1
84 180 1
85 181 1
78 182 1
85 182 1
78 183 1
86 183 1
79 184 1
86 184 1
79 185 1
87 185 1
80 186 1
87 186 1
80 187 1
88 187 1
81 188 1
88 188 1
81 189 1
89 189 1
82 190 1
89 190 1
82 191 1
90 191 1
83 192 1
90 192 1
83 193 1
91 193 1
84 194 1
91 194 1
84 195 1
85 196 1
85 197 1
92 197 1
86 198 1
92 198 1
86 199 1
93 199 1
87 200 1
93 200 1
87 201 1
94 201 1
88 202 1
94 202 1
88 203 1
95 203 1
89 204 1
95 204 1
89 205 1
96 205 1
90 206 1
96 206 1
90 207 1
97 207 1
91 208 1
97 208 1
91 209 1
98 209 1
98 210 1
99 211 1
92 212 1
99 212 1
92 213 1
100 213 1
93 214 1
100 214 1
93 215 1
101 215 1
94 216 1
101 216 1
94 217 1
102 217 1
95 218 1
102 218 1
95 219 1
103 219 1
96 220 1
103 220 1
96 221 1
104 221 1
97 222 1
104 222 1
97 223 1
105 223 1
98 224 1
105 224 1
98 225 1
