%%MatrixMarket matrix coordinate integer general
%
220 441 840
201 1 1
1 2 1
1 3 1
2 4 1
2 5 1
3 6 1
3 7 1
4 8 1
4 9 1
5 10 1
5 11 1
6 12 1
6 13 1
7 14 1
7 15 1
8 16 1
8 17 1
9 18 1
9 19 1
10 20 1
10 21 1
11 22 1
201 22 1
1 23 1
11 23 1
1 24 1
12 24 1
2 25 1
12 25 1
2 26 1
13 26 1
3 27 1
13 27 1
3 28 1
14 28 1
4 29 1
14 29 1
4 30 1
15 30 1
5 31 1
15 31 1
5 32 1
16 32 1
6 33 1
16 33 1
6 34 1
17 34 1
7 35 1
17 35 1
7 36 1
18 36 1
8 37 1
18 37 1
8 38 1
19 38 1
9 39 1
19 39 1
9 40 1
20 40 1
10 41 1
20 41 1
10 42 1
220 42 1
11 43 1
202 43 1
11 44 1
21 44 1
12 45 1
21 45 1
12 46 1
22 46 1
13 47 1
22 47 1
13 48 1
23 48 1
14 49 1
23 49 1
14 50 1
24 50 1
15 51 1
24 51 1
15 52 1
25 52 1
16 53 1
25 53 1
16 54 1
26 54 1
17 55 1
26 55 1
17 56 1
27 56 1
18 57 1
27 57 1
18 58 1
28 58 1
19 59 1
28 59 1
19 60 1
29 60 1
20 61 1
29 61 1
20 62 1
30 62 1
30 63 1
220 63 1
31 64 1
202 64 1
21 65 1
31 65 1
21 66 1
32 66 1
22 67 1
32 67 1
22 68 1
33 68 1
23 69 1
33 69 1
23 70 1
34 70 1
24 71 1
34 71 1
24 72 1
35 72 1
25 73 1
35 73 1
25 74 1
36 74 1
26 75 1
36 75 1
26 76 1
37 76 1
27 77 1
37 77 1
27 78 1
38 78 1
28 79 1
38 79 1
28 80 1
39 80 1
29 81 1
39 81 1
29 82 1
40 82 1
30 83 1
40 83 1
30 84 1
219 84 1
31 85 1
203 85 1
31 86 1
41 86 1
32 87 1
41 87 1
32 88 1
42 88 1
33 89 1
42 89 1
33 90 1
43 90 1
34 91 1
43 91 1
34 92 1
44 92 1
35 93 1
44 93 1
35 94 1
45 94 1
36 95 1
45 95 1
36 96 1
46 96 1
37 97 1
46 97 1
37 98 1
47 98 1
38 99 1
47 99 1
38 100 1
48 100 1
39 101 1
48 101 1
39 102 1
49 102 1
40 103 1
49 103 1
40 104 1
50 104 1
50 105 1
219 105 1
51 106 1
203 106 1
41 107 1
51 107 1
41 108 1
52 108 1
42 109 1
52 109 1
42 110 1
53 110 1
43 111 1
53 111 1
43 112 1
54 112 1
44 113 1
54 113 1
44 114 1
55 114 1
45 115 1
55 115 1
45 116 1
56 116 1
46 117 1
56 117 1
46 118 1
57 118 1
47 119 1
57 119 1
47 120 1
58 120 1
48 121 1
58 121 1
48 122 1
59 122 1
49 123 1
59 123 1
49 124 1
60 124 1
50 125 1
60 125 1
50 126 1
218 126 1
51 127 1
204 127 1
51 128 1
61 128 1
52 129 1
61 129 1
52 130 1
62 130 1
53 131 1
62 131 1
53 132 1
63 132 1
54 133 1
63 133 1
54 134 1
64 134 1
55 135 1
64 135 1
55 136 1
65 136 1
56 137 1
65 137 1
56 138 1
66 138 1
57 139 1
66 139 1
57 140 1
67 140 1
58 141 1
67 141 1
58 142 1
68 142 1
59 143 1
68 143 1
59 144 1
69 144 1
60 145 1
69 145 1
60 146 1
70 146 1
70 147 1
218 147 1
71 148 1
204 148 1
61 149 1
71 149 1
61 150 1
72 150 1
62 151 1
72 151 1
62 152 1
73 152 1
63 153 1
73 153 1
63 154 1
74 154 1
64 155 1
74 155 1
64 156 1
75 156 1
65 157 1
75 157 1
65 158 1
76 158 1
66 159 1
76 159 1
66 160 1
77 160 1
67 161 1
77 161 1
67 162 1
78 162 1
68 163 1
78 163 1
68 164 1
79 164 1
69 165 1
79 165 1
69 166 1
80 166 1
70 167 1
80 167 1
70 168 1
217 168 1
71 169 1
205 169 1
71 170 1
81 170 1
72 171 1
81 171 1
72 172 1
82 172 1
73 173 1
82 173 1
73 174 1
83 174 1
74 175 1
83 175 1
74 176 1
84 176 1
75 177 1
84 177 1
75 178 1
85 178 1
76 179 1
85 179 1
76 180 1
86 180 1
77 181 1
86 181 1
77 182 1
87 182 1
78 183 1
87 183 1
78 184 1
88 184 1
79 185 1
88 185 1
79 186 1
89 186 1
80 187 1
89 187 1
80 188 1
90 188 1
90 189 1
217 189 1
91 190 1
205 190 1
81 191 1
91 191 1
81 192 1
92 192 1
82 193 1
92 193 1
82 194 1
93 194 1
83 195 1
93 195 1
83 196 1
94 196 1
84 197 1
94 197 1
84 198 1
95 198 1
85 199 1
95 199 1
85 200 1
96 200 1
86 201 1
96 201 1
86 202 1
97 202 1
87 203 1
97 203 1
87 204 1
98 204 1
88 205 1
98 205 1
88 206 1
99 206 1
89 207 1
99 207 1
89 208 1
100 208 1
90 209 1
100 209 1
90 210 1
216 210 1
91 211 1
206 211 1
91 212 1
101 212 1
92 213 1
101 213 1
92 214 1
102 214 1
93 215 1
102 215 1
93 216 1
103 216 1
94 217 1
103 217 1
94 218 1
104 218 1
95 219 1
104 219 1
95 220 1
105 220 1
96 221 1
105 221 1
96 222 1
106 222 1
97 223 1
106 223 1
97 224 1
107 224 1
98 225 1
107 225 1
98 226 1
108 226 1
99 227 1
108 227 1
99 228 1
109 228 1
100 229 1
109 229 1
100 230 1
110 230 1
110 231 1
216 231 1
111 232 1
206 232 1
101 233 1
111 233 1
101 234 1
112 234 1
102 235 1
112 235 1
102 236 1
113 236 1
103 237 1
113 237 1
103 238 1
114 238 1
104 239 1
114 239 1
104 240 1
115 240 1
105 241 1
115 241 1
105 242 1
116 242 1
106 243 1
116 243 1
106 244 1
117 244 1
107 245 1
117 245 1
107 246 1
118 246 1
108 247 1
118 247 1
108 248 1
119 248 1
109 249 1
119 249 1
109 250 1
120 250 1
110 251 1
120 251 1
110 252 1
215 252 1
111 253 1
207 253 1
111 254 1
121 254 1
112 255 1
121 255 1
112 256 1
122 256 1
113 257 1
122 257 1
113 258 1
123 258 1
114 259 1
123 259 1
114 260 1
124 260 1
115 261 1
124 261 1
115 262 1
125 262 1
116 263 1
125 263 1
116 264 1
126 264 1
117 265 1
126 265 1
117 266 1
127 266 1
118 267 1
127 267 1
118 268 1
128 268 1
119 269 1
128 269 1
119 270 1
129 270 1
120 271 1
129 271 1
120 272 1
130 272 1
130 273 1
215 273 1
131 274 1
207 274 1
121 275 1
131 275 1
121 276 1
132 276 1
122 277 1
132 277 1
122 278 1
133 278 1
123 279 1
133 279 1
123 280 1
134 280 1
124 281 1
134 281 1
124 282 1
135 282 1
125 283 1
135 283 1
125 284 1
136 284 1
126 285 1
136 285 1
126 286 1
137 286 1
127 287 1
137 287 1
127 288 1
138 288 1
128 289 1
138 289 1
128 290 1
139 290 1
129 291 1
139 291 1
129 292 1
140 292 1
130 293 1
140 293 1
130 294 1
214 294 1
131 295 1
208 295 1
131 296 1
141 296 1
132 297 1
141 297 1
132 298 1
142 298 1
133 299 1
142 299 1
133 300 1
143 300 1
134 301 1
143 301 1
134 302 1
144 302 1
135 303 1
144 303 1
135 304 1
145 304 1
136 305 1
145 305 1
136 306 1
146 306 1
137 307 1
146 307 1
137 308 1
147 308 1
138 309 1
147 309 1
138 310 1
148 310 1
139 311 1
148 311 1
139 312 1
149 312 1
140 313 1
149 313 1
140 314 1
150 314 1
150 315 1
214 315 1
151 316 1
208 316 1
141 317 1
151 317 1
141 318 1
152 318 1
142 319 1
152 319 1
142 320 1
153 320 1
143 321 1
153 321 1
143 322 1
154 322 1
144 323 1
154 323 1
144 324 1
155 324 1
145 325 1
155 325 1
145 326 1
156 326 1
146 327 1
156 327 1
146 328 1
157 328 1
147 329 1
157 329 1
147 330 1
158 330 1
148 331 1
158 331 1
148 332 1
159 332 1
149 333 1
159 333 1
149 334 1
160 334 1
150 335 1
160 335 1
150 336 1
213 336 1
151 337 1
209 337 1
151 338 1
161 338 1
152 339 1
161 339 1
152 340 1
162 340 1
153 341 1
162 341 1
153 342 1
163 342 1
154 343 1
163 343 1
154 344 1
164 344 1
155 345 1
164 345 1
155 346 1
165 346 1
156 347 1
165 347 1
156 348 1
166 348 1
157 349 1
166 349 1
157 350 1
167 350 1
158 351 1
167 351 1
158 352 1
168 352 1
159 353 1
168 353 1
159 354 1
169 354 1
160 355 1
169 355 1
160 356 1
170 356 1
170 357 1
213 357 1
171 358 1
209 358 1
161 359 1
171 359 1
161 360 1
172 360 1
162 361 1
172 361 1
162 362 1
173 362 1
163 363 1
173 363 1
163 364 1
174 364 1
164 365 1
174 365 1
164 366 1
175 366 1
165 367 1
175 367 1
165 368 1
176 368 1
166 369 1
176 369 1
166 370 1
177 370 1
167 371 1
177 371 1
167 372 1
178 372 1
168 373 1
178 373 1
168 374 1
179 374 1
169 375 1
179 375 1
169 376 1
180 376 1
170 377 1
180 377 1
170 378 1
212 378 1
171 379 1
210 379 1
171 380 1
181 380 1
172 381 1
181 381 1
172 382 1
182 382 1
173 383 1
182 383 1
173 384 1
183 384 1
174 385 1
183 385 1
174 386 1
184 386 1
175 387 1
184 387 1
175 388 1
185 388 1
176 389 1
185 389 1
176 390 1
186 390 1
177 391 1
186 391 1
177 392 1
187 392 1
178 393 1
187 393 1
178 394 1
188 394 1
179 395 1
188 395 1
179 396 1
189 396 1
180 397 1
189 397 1
180 398 1
190 398 1
190 399 1
212 399 1
191 400 1
210 400 1
181 401 1
191 401 1
181 402 1
192 402 1
182 403 1
192 403 1
182 404 1
193 404 1
183 405 1
193 405 1
183 406 1
194 406 1
184 407 1
194 407 1
184 408 1
195 408 1
185 409 1
195 409 1
185 410 1
196 410 1
186 411 1
196 411 1
186 412 1
197 412 1
187 413 1
197 413 1
187 414 1
198 414 1
188 415 1
198 415 1
188 416 1
199 416 1
189 417 1
199 417 1
189 418 1
200 418 1
190 419 1
200 419 1
190 420 1
211 420 1
191 421 1
191 422 1
192 423 1
192 424 1
193 425 1
193 426 1
194 427 1
194 428 1
195 429 1
195 430 1
196 431 1
196 432 1
197 433 1
197 434 1
198 435 1
198 436 1
199 437 1
199 438 1
200 439 1
200 440 1
211 441 1
