%%MatrixMarket matrix coordinate integer general
%
220 441 840
1 1 1
1 2 1
220 2 1
2 3 1
220 3 1
2 4 1
219 4 1
3 5 1
219 5 1
3 6 1
218 6 1
4 7 1
218 7 1
4 8 1
217 8 1
5 9 1
217 9 1
5 10 1
216 10 1
6 11 1
216 11 1
6 12 1
215 12 1
7 13 1
215 13 1
7 14 1
214 14 1
8 15 1
214 15 1
8 16 1
213 16 1
9 17 1
213 17 1
9 18 1
212 18 1
10 19 1
212 19 1
10 20 1
211 20 1
211 21 1
1 22 1
1 23 1
11 23 1
2 24 1
11 24 1
2 25 1
12 25 1
3 26 1
12 26 1
3 27 1
13 27 1
4 28 1
13 28 1
4 29 1
14 29 1
5 30 1
14 30 1
5 31 1
15 31 1
6 32 1
15 32 1
6 33 1
16 33 1
7 34 1
16 34 1
7 35 1
17 35 1
8 36 1
17 36 1
8 37 1
18 37 1
9 38 1
18 38 1
9 39 1
19 39 1
10 40 1
19 40 1
10 41 1
20 41 1
20 42 1
21 43 1
11 44 1
21 44 1
11 45 1
22 45 1
12 46 1
22 46 1
12 47 1
23 47 1
13 48 1
23 48 1
13 49 1
24 49 1
14 50 1
24 50 1
14 51 1
25 51 1
15 52 1
25 52 1
15 53 1
26 53 1
16 54 1
26 54 1
16 55 1
27 55 1
17 56 1
27 56 1
17 57 1
28 57 1
18 58 1
28 58 1
18 59 1
29 59 1
19 60 1
29 60 1
19 61 1
30 61 1
20 62 1
30 62 1
20 63 1
21 64 1
21 65 1
31 65 1
22 66 1
31 66 1
22 67 1
32 67 1
23 68 1
32 68 1
23 69 1
33 69 1
24 70 1
33 70 1
24 71 1
34 71 1
25 72 1
34 72 1
25 73 1
35 73 1
26 74 1
35 74 1
26 75 1
36 75 1
27 76 1
36 76 1
27 77 1
37 77 1
28 78 1
37 78 1
28 79 1
38 79 1
29 80 1
38 80 1
29 81 1
39 81 1
30 82 1
39 82 1
30 83 1
40 83 1
40 84 1
41 85 1
31 86 1
41 86 1
31 87 1
42 87 1
32 88 1
42 88 1
32 89 1
43 89 1
33 90 1
43 90 1
33 91 1
44 91 1
34 92 1
44 92 1
34 93 1
45 93 1
35 94 1
45 94 1
35 95 1
46 95 1
36 96 1
46 96 1
36 97 1
47 97 1
37 98 1
47 98 1
37 99 1
48 99 1
38 100 1
48 100 1
38 101 1
49 101 1
39 102 1
49 102 1
39 103 1
50 103 1
40 104 1
50 104 1
40 105 1
41 106 1
41 107 1
51 107 1
42 108 1
51 108 1
42 109 1
52 109 1
43 110 1
52 110 1
43 111 1
53 111 1
44 112 1
53 112 1
44 113 1
54 113 1
45 114 1
54 114 1
45 115 1
55 115 1
46 116 1
55 116 1
46 117 1
56 117 1
47 118 1
56 118 1
47 119 1
57 119 1
48 120 1
57 120 1
48 121 1
58 121 1
49 122 1
58 122 1
49 123 1
59 123 1
50 124 1
59 124 1
50 125 1
60 125 1
60 126 1
61 127 1
51 128 1
61 128 1
51 129 1
62 129 1
52 130 1
62 130 1
52 131 1
63 131 1
53 132 1
63 132 1
53 133 1
64 133 1
54 134 1
64 134 1
54 135 1
65 135 1
55 136 1
65 136 1
55 137 1
66 137 1
56 138 1
66 138 1
56 139 1
67 139 1
57 140 1
67 140 1
57 141 1
68 141 1
58 142 1
68 142 1
58 143 1
69 143 1
59 144 1
69 144 1
59 145 1
70 145 1
60 146 1
70 146 1
60 147 1
61 148 1
61 149 1
71 149 1
62 150 1
71 150 1
62 151 1
72 151 1
63 152 1
72 152 1
63 153 1
73 153 1
64 154 1
73 154 1
64 155 1
74 155 1
65 156 1
74 156 1
65 157 1
75 157 1
66 158 1
75 158 1
66 159 1
76 159 1
67 160 1
76 160 1
67 161 1
77 161 1
68 162 1
77 162 1
68 163 1
78 163 1
69 164 1
78 164 1
69 165 1
79 165 1
70 166 1
79 166 1
70 167 1
80 167 1
80 168 1
81 169 1
71 170 1
81 170 1
71 171 1
82 171 1
72 172 1
82 172 1
72 173 1
83 173 1
73 174 1
83 174 1
73 175 1
84 175 1
74 176 1
84 176 1
74 177 1
85 177 1
75 178 1
85 178 1
75 179 1
86 179 1
76 180 1
86 180 1
76 181 1
87 181 1
77 182 1
87 182 1
77 183 1
88 183 1
78 184 1
88 184 1
78 185 1
89 185 1
79 186 1
89 186 1
79 187 1
90 187 1
80 188 1
90 188 1
80 189 1
81 190 1
81 191 1
91 191 1
82 192 1
91 192 1
82 193 1
92 193 1
83 194 1
92 194 1
83 195 1
93 195 1
84 196 1
93 196 1
84 197 1
94 197 1
85 198 1
94 198 1
85 199 1
95 199 1
86 200 1
95 200 1
86 201 1
96 201 1
87 202 1
96 202 1
87 203 1
97 203 1
88 204 1
97 204 1
88 205 1
98 205 1
89 206 1
98 206 1
89 207 1
99 207 1
90 208 1
99 208 1
90 209 1
100 209 1
100 210 1
101 211 1
91 212 1
101 212 1
91 213 1
102 213 1
92 214 1
102 214 1
92 215 1
103 215 1
93 216 1
103 216 1
93 217 1
104 217 1
94 218 1
104 218 1
94 219 1
105 219 1
95 220 1
105 220 1
95 221 1
106 221 1
96 222 1
106 222 1
96 223 1
107 223 1
97 224 1
107 224 1
97 225 1
108 225 1
98 226 1
108 226 1
98 227 1
109 227 1
99 228 1
109 228 1
99 229 1
110 229 1
100 230 1
110 230 1
100 231 1
101 232 1
101 233 1
111 233 1
102 234 1
111 234 1
102 235 1
112 235 1
103 236 1
112 236 1
103 237 1
113 237 1
104 238 1
113 238 1
104 239 1
114 239 1
105 240 1
114 240 1
105 241 1
115 241 1
106 242 1
115 242 1
106 243 1
116 243 1
107 244 1
116 244 1
107 245 1
117 245 1
108 246 1
117 246 1
108 247 1
118 247 1
109 248 1
118 248 1
109 249 1
119 249 1
110 250 1
119 250 1
110 251 1
120 251 1
120 252 1
121 253 1
111 254 1
121 254 1
111 255 1
122 255 1
112 256 1
122 256 1
112 257 1
123 257 1
113 258 1
123 258 1
113 259 1
124 259 1
114 260 1
124 260 1
114 261 1
125 261 1
115 262 1
125 262 1
115 263 1
126 263 1
116 264 1
126 264 1
116 265 1
127 265 1
117 266 1
127 266 1
117 267 1
128 267 1
118 268 1
128 268 1
118 269 1
129 269 1
119 270 1
129 270 1
119 271 1
130 271 1
120 272 1
130 272 1
120 273 1
121 274 1
121 275 1
131 275 1
122 276 1
131 276 1
122 277 1
132 277 1
123 278 1
132 278 1
123 279 1
133 279 1
124 280 1
133 280 1
124 281 1
134 281 1
125 282 1
134 282 1
125 283 1
135 283 1
126 284 1
135 284 1
126 285 1
136 285 1
127 286 1
136 286 1
127 287 1
137 287 1
128 288 1
137 288 1
128 289 1
138 289 1
129 290 1
138 290 1
129 291 1
139 291 1
130 292 1
139 292 1
130 293 1
140 293 1
140 294 1
141 295 1
131 296 1
141 296 1
131 297 1
142 297 1
132 298 1
142 298 1
132 299 1
143 299 1
133 300 1
143 300 1
133 301 1
144 301 1
134 302 1
144 302 1
134 303 1
145 303 1
135 304 1
145 304 1
135 305 1
146 305 1
136 306 1
146 306 1
136 307 1
147 307 1
137 308 1
147 308 1
137 309 1
148 309 1
138 310 1
148 310 1
138 311 1
149 311 1
139 312 1
149 312 1
139 313 1
150 313 1
140 314 1
150 314 1
140 315 1
141 316 1
141 317 1
151 317 1
142 318 1
151 318 1
142 319 1
152 319 1
143 320 1
152 320 1
143 321 1
153 321 1
144 322 1
153 322 1
144 323 1
154 323 1
145 324 1
154 324 1
145 325 1
155 325 1
146 326 1
155 326 1
146 327 1
156 327 1
147 328 1
156 328 1
147 329 1
157 329 1
148 330 1
157 330 1
148 331 1
158 331 1
149 332 1
158 332 1
149 333 1
159 333 1
150 334 1
159 334 1
150 335 1
160 335 1
160 336 1
161 337 1
151 338 1
161 338 1
151 339 1
162 339 1
152 340 1
162 340 1
152 341 1
163 341 1
153 342 1
163 342 1
153 343 1
164 343 1
154 344 1
164 344 1
154 345 1
165 345 1
155 346 1
165 346 1
155 347 1
166 347 1
156 348 1
166 348 1
156 349 1
167 349 1
157 350 1
167 350 1
157 351 1
168 351 1
158 352 1
168 352 1
158 353 1
169 353 1
159 354 1
169 354 1
159 355 1
170 355 1
160 356 1
170 356 1
160 357 1
161 358 1
161 359 1
171 359 1
162 360 1
171 360 1
162 361 1
172 361 1
163 362 1
172 362 1
163 363 1
173 363 1
164 364 1
173 364 1
164 365 1
174 365 1
165 366 1
174 366 1
165 367 1
175 367 1
166 368 1
175 368 1
166 369 1
176 369 1
167 370 1
176 370 1
167 371 1
177 371 1
168 372 1
177 372 1
168 373 1
178 373 1
169 374 1
178 374 1
169 375 1
179 375 1
170 376 1
179 376 1
170 377 1
180 377 1
180 378 1
181 379 1
171 380 1
181 380 1
171 381 1
182 381 1
172 382 1
182 382 1
172 383 1
183 383 1
173 384 1
183 384 1
173 385 1
184 385 1
174 386 1
184 386 1
174 387 1
185 387 1
175 388 1
185 388 1
175 389 1
186 389 1
176 390 1
186 390 1
176 391 1
187 391 1
177 392 1
187 392 1
177 393 1
188 393 1
178 394 1
188 394 1
178 395 1
189 395 1
179 396 1
189 396 1
179 397 1
190 397 1
180 398 1
190 398 1
180 399 1
181 400 1
181 401 1
191 401 1
182 402 1
191 402 1
182 403 1
192 403 1
183 404 1
192 404 1
183 405 1
193 405 1
184 406 1
193 406 1
184 407 1
194 407 1
185 408 1
194 408 1
185 409 1
195 409 1
186 410 1
195 410 1
186 411 1
196 411 1
187 412 1
196 412 1
187 413 1
197 413 1
188 414 1
197 414 1
188 415 1
198 415 1
189 416 1
198 416 1
189 417 1
199 417 1
190 418 1
199 418 1
190 419 1
200 419 1
200 420 1
201 421 1
191 422 1
201 422 1
191 423 1
202 423 1
192 424 1
202 424 1
192 425 1
203 425 1
193 426 1
203 426 1
193 427 1
204 427 1
194 428 1
204 428 1
194 429 1
205 429 1
195 430 1
205 430 1
195 431 1
206 431 1
196 432 1
206 432 1
196 433 1
207 433 1
197 434 1
207 434 1
197 435 1
208 435 1
198 436 1
208 436 1
198 437 1
209 437 1
199 438 1
209 438 1
199 439 1
210 439 1
200 440 1
210 440 1
200 441 1
