%%MatrixMarket matrix coordinate integer general
%
112 225 420
99 1 1
1 2 1
1 3 1
2 4 1
2 5 1
3 6 1
3 7 1
4 8 1
4 9 1
5 10 1
5 11 1
6 12 1
6 13 1
7 14 1
7 15 1
8 16 1
99 16 1
1 17 1
8 17 1
1 18 1
9 18 1
2 19 1
9 19 1
2 20 1
10 20 1
3 21 1
10 21 1
3 22 1
11 22 1
4 23 1
11 23 1
4 24 1
12 24 1
5 25 1
12 25 1
5 26 1
13 26 1
6 27 1
13 27 1
6 28 1
14 28 1
7 29 1
14 29 1
7 30 1
112 30 1
8 31 1
100 31 1
8 32 1
15 32 1
9 33 1
15 33 1
9 34 1
16 34 1
10 35 1
16 35 1
10 36 1
17 36 1
11 37 1
17 37 1
11 38 1
18 38 1
12 39 1
18 39 1
12 40 1
19 40 1
13 41 1
19 41 1
13 42 1
20 42 1
14 43 1
20 43 1
14 44 1
21 44 1
21 45 1
112 45 1
22 46 1
100 46 1
15 47 1
22 47 1
15 48 1
23 48 1
16 49 1
23 49 1
16 50 1
24 50 1
17 51 1
24 51 1
17 52 1
25 52 1
18 53 1
25 53 1
18 54 1
26 54 1
19 55 1
26 55 1
19 56 1
27 56 1
20 57 1
27 57 1
20 58 1
28 58 1
21 59 1
28 59 1
21 60 1
111 60 1
22 61 1
101 61 1
22 62 1
29 62 1
23 63 1
29 63 1
23 64 1
30 64 1
24 65 1
30 65 1
24 66 1
31 66 1
25 67 1
31 67 1
25 68 1
32 68 1
26 69 1
32 69 1
26 70 1
33 70 1
27 71 1
33 71 1
27 72 1
34 72 1
28 73 1
34 73 1
28 74 1
35 74 1
35 75 1
111 75 1
36 76 1
101 76 1
29 77 1
36 77 1
29 78 1
37 78 1
30 79 1
37 79 1
30 80 1
38 80 1
31 81 1
38 81 1
31 82 1
39 82 1
32 83 1
39 83 1
32 84 1
40 84 1
33 85 1
40 85 1
33 86 1
41 86 1
34 87 1
41 87 1
34 88 1
42 88 1
35 89 1
42 89 1
35 90 1
110 90 1
36 91 1
102 91 1
36 92 1
43 92 1
37 93 1
43 93 1
37 94 1
44 94 1
38 95 1
44 95 1
38 96 1
45 96 1
39 97 1
45 97 1
39 98 1
46 98 1
40 99 1
46 99 1
40 100 1
47 100 1
41 101 1
47 101 1
41 102 1
48 102 1
42 103 1
48 103 1
42 104 1
49 104 1
49 105 1
110 105 1
50 106 1
102 106 1
43 107 1
50 107 1
43 108 1
51 108 1
44 109 1
51 109 1
44 110 1
52 110 1
45 111 1
52 111 1
45 112 1
53 112 1
46 113 1
53 113 1
46 114 1
54 114 1
47 115 1
54 115 1
47 116 1
55 116 1
48 117 1
55 117 1
48 118 1
56 118 1
49 119 1
56 119 1
49 120 1
109 120 1
50 121 1
103 121 1
50 122 1
57 122 1
51 123 1
57 123 1
51 124 1
58 124 1
52 125 1
58 125 1
52 126 1
59 126 1
53 127 1
59 127 1
53 128 1
60 128 1
54 129 1
60 129 1
54 130 1
61 130 1
55 131 1
61 131 1
55 132 1
62 132 1
56 133 1
62 133 1
56 134 1
63 134 1
63 135 1
109 135 1
64 136 1
103 136 1
57 137 1
64 137 1
57 138 1
65 138 1
58 139 1
65 139 1
58 140 1
66 140 1
59 141 1
66 141 1
59 142 1
67 142 1
60 143 1
67 143 1
60 144 1
68 144 1
61 145 1
68 145 1
61 146 1
69 146 1
62 147 1
69 147 1
62 148 1
70 148 1
63 149 1
70 149 1
63 150 1
108 150 1
64 151 1
104 151 1
64 152 1
71 152 1
65 153 1
71 153 1
65 154 1
72 154 1
66 155 1
72 155 1
66 156 1
73 156 1
67 157 1
73 157 1
67 158 1
74 158 1
68 159 1
74 159 1
68 160 1
75 160 1
69 161 1
75 161 1
69 162 1
76 162 1
70 163 1
76 163 1
70 164 1
77 164 1
77 165 1
108 165 1
78 166 1
104 166 1
71 167 1
78 167 1
71 168 1
79 168 1
72 169 1
79 169 1
72 170 1
80 170 1
73 171 1
80 171 1
73 172 1
81 172 1
74 173 1
81 173 1
74 174 1
82 174 1
75 175 1
82 175 1
75 176 1
83 176 1
76 177 1
83 177 1
76 178 1
84 178 1
77 179 1
84 179 1
77 180 1
107 180 1
78 181 1
105 181 1
78 182 1
85 182 1
79 183 1
85 183 1
79 184 1
86 184 1
80 185 1
86 185 1
80 186 1
87 186 1
81 187 1
87 187 1
81 188 1
88 188 1
82 189 1
88 189 1
82 190 1
89 190 1
83 191 1
89 191 1
83 192 1
90 192 1
84 193 1
90 193 1
84 194 1
91 194 1
91 195 1
107 195 1
92 196 1
105 196 1
85 197 1
92 197 1
85 198 1
93 198 1
86 199 1
93 199 1
86 200 1
94 200 1
87 201 1
94 201 1
87 202 1
95 202 1
88 203 1
95 203 1
88 204 1
96 204 1
89 205 1
96 205 1
89 206 1
97 206 1
90 207 1
97 207 1
90 208 1
98 208 1
91 209 1
98 209 1
91 210 1
106 210 1
92 211 1
92 212 1
93 213 1
93 214 1
94 215 1
94 216 1
95 217 1
95 218 1
96 219 1
96 220 1
97 221 1
97 222 1
98 223 1
98 224 1
106 225 1
