%%MatrixMarket matrix coordinate integer general
21 225 816
1 1 1
3 1 1
4 1 1
5 1 1
9 1 1
10 1 1
12 1 1
13 1 1
17 1 1
18 1 1
3 2 1
5 2 1
8 2 1
10 2 1
11 2 1
12 2 1
13 2 1
16 2 1
17 2 1
18 2 1
19 2 1
1 3 1
2 3 1
3 3 1
4 3 1
9 3 1
11 3 1
12 3 1
13 3 1
16 3 1
3 4 1
5 4 1
7 4 1
8 4 1
9 4 1
11 4 1
13 4 1
21 4 1
1 5 1
2 5 1
3 5 1
4 5 1
6 5 1
7 5 1
11 5 1
12 5 1
13 5 1
17 5 1
2 6 1
3 6 1
5 6 1
6 6 1
8 6 1
9 6 1
11 6 1
13 6 1
15 6 1
17 6 1
18 6 1
1 7 1
2 7 1
3 7 1
4 7 1
11 7 1
12 7 1
13 7 1
14 7 1
15 7 1
17 7 1
18 7 1
2 8 1
3 8 1
4 8 1
5 8 1
8 8 1
9 8 1
11 8 1
12 8 1
14 8 1
17 8 1
18 8 1
3 9 1
17 9 1
4 10 1
12 10 1
20 10 1
1 11 1
8 12 1
5 13 1
9 15 1
18 20 1
15 29 1
16 29 1
14 30 1
15 30 1
16 30 1
17 30 1
18 30 1
20 30 1
21 30 1
7 31 1
13 31 1
14 31 1
15 31 1
16 31 1
17 31 1
21 31 1
6 32 1
7 32 1
11 32 1
13 32 1
14 32 1
15 32 1
16 32 1
17 32 1
18 32 1
19 32 1
21 32 1
6 33 1
7 33 1
10 33 1
11 33 1
13 33 1
14 33 1
16 33 1
17 33 1
18 33 1
21 33 1
6 34 1
7 34 1
10 34 1
11 34 1
12 34 1
13 34 1
17 34 1
20 34 1
2 35 1
6 35 1
7 35 1
10 35 1
11 35 1
19 35 1
21 35 1
6 36 1
10 36 1
12 36 1
18 36 1
19 36 1
20 36 1
21 36 1
1 37 1
3 37 1
4 37 1
5 37 1
7 37 1
9 37 1
10 37 1
12 37 1
13 37 1
17 37 1
18 37 1
3 38 1
5 38 1
6 38 1
8 38 1
10 38 1
11 38 1
12 38 1
13 38 1
16 38 1
17 38 1
18 38 1
1 39 1
2 39 1
3 39 1
4 39 1
9 39 1
11 39 1
12 39 1
13 39 1
15 39 1
16 39 1
3 40 1
5 40 1
7 40 1
8 40 1
9 40 1
11 40 1
13 40 1
14 40 1
1 41 1
2 41 1
3 41 1
4 41 1
6 41 1
7 41 1
11 41 1
12 41 1
17 41 1
2 42 1
3 42 1
5 42 1
6 42 1
8 42 1
9 42 1
13 42 1
15 42 1
17 42 1
18 42 1
1 43 1
2 43 1
3 43 1
4 43 1
10 43 1
11 43 1
12 43 1
13 43 1
14 43 1
15 43 1
17 43 1
18 43 1
2 44 1
3 44 1
4 44 1
5 44 1
8 44 1
9 44 1
11 44 1
12 44 1
14 44 1
16 44 1
17 44 1
18 44 1
3 45 1
4 46 1
1 47 1
8 48 1
5 49 1
9 51 1
2 71 1
7 73 1
6 74 1
15 75 1
14 76 1
13 77 1
11 78 1
10 79 1
16 80 1
17 81 1
12 82 1
18 92 1
19 110 1
21 112 1
20 118 1
15 137 1
16 137 1
14 138 1
15 138 1
16 138 1
17 138 1
18 138 1
20 138 1
21 138 1
7 139 1
13 139 1
14 139 1
15 139 1
16 139 1
17 139 1
21 139 1
6 140 1
7 140 1
11 140 1
13 140 1
14 140 1
15 140 1
16 140 1
17 140 1
18 140 1
19 140 1
21 140 1
6 141 1
7 141 1
10 141 1
11 141 1
13 141 1
14 141 1
16 141 1
17 141 1
18 141 1
21 141 1
6 142 1
7 142 1
10 142 1
11 142 1
12 142 1
13 142 1
17 142 1
20 142 1
6 143 1
7 143 1
10 143 1
11 143 1
19 143 1
21 143 1
6 144 1
10 144 1
12 144 1
18 144 1
19 144 1
20 144 1
21 144 1
2 173 1
4 173 1
7 173 1
8 173 1
10 173 1
12 173 1
14 173 1
17 173 1
18 173 1
1 174 1
5 174 1
6 174 1
8 174 1
9 174 1
10 174 1
13 174 1
14 174 1
16 174 1
17 174 1
18 174 1
21 174 1
5 175 1
9 175 1
10 175 1
11 175 1
13 175 1
14 175 1
15 175 1
16 175 1
19 175 1
21 175 1
7 176 1
8 176 1
11 176 1
13 176 1
16 176 1
19 176 1
21 176 1
5 177 1
6 177 1
7 177 1
8 177 1
11 177 1
14 177 1
18 177 1
2 178 1
4 178 1
5 178 1
6 178 1
7 178 1
8 178 1
9 178 1
12 178 1
13 178 1
14 178 1
15 178 1
17 178 1
20 178 1
1 179 1
2 179 1
4 179 1
5 179 1
6 179 1
8 179 1
10 179 1
11 179 1
12 179 1
13 179 1
15 179 1
17 179 1
18 179 1
19 179 1
21 179 1
1 180 1
5 180 1
11 180 1
15 180 1
16 180 1
17 180 1
18 180 1
19 180 1
20 180 1
21 180 1
1 182 1
4 182 1
5 182 1
7 182 1
8 182 1
9 182 1
10 182 1
11 182 1
12 182 1
14 182 1
16 182 1
17 182 1
18 182 1
19 182 1
21 182 1
2 183 1
4 183 1
6 183 1
11 183 1
13 183 1
14 183 1
18 183 1
2 184 1
4 184 1
5 184 1
7 184 1
8 184 1
9 184 1
12 184 1
13 184 1
14 184 1
15 184 1
16 184 1
17 184 1
18 184 1
20 184 1
21 184 1
2 185 1
4 185 1
6 185 1
8 185 1
10 185 1
12 185 1
13 185 1
16 185 1
18 185 1
20 185 1
7 186 1
8 186 1
9 186 1
10 186 1
14 186 1
15 186 1
1 187 1
4 187 1
6 187 1
7 187 1
8 187 1
10 187 1
11 187 1
12 187 1
13 187 1
17 187 1
6 188 1
14 188 1
15 188 1
17 188 1
20 188 1
1 189 1
2 189 1
4 189 1
5 189 1
8 189 1
10 189 1
11 189 1
12 189 1
13 189 1
15 189 1
16 189 1
17 189 1
19 189 1
20 189 1
1 190 1
4 190 1
5 190 1
9 190 1
10 190 1
12 190 1
13 190 1
14 190 1
17 190 1
18 190 1
2 191 1
4 191 1
5 191 1
7 191 1
8 191 1
13 191 1
6 192 1
16 192 1
18 192 1
21 192 1
1 193 1
5 193 1
11 193 1
15 193 1
16 193 1
17 193 1
18 193 1
19 193 1
20 193 1
21 193 1
1 194 1
5 194 1
7 194 1
8 194 1
9 194 1
10 194 1
11 194 1
14 194 1
16 194 1
17 194 1
18 194 1
19 194 1
20 194 1
21 194 1
1 195 1
4 195 1
6 195 1
7 195 1
8 195 1
10 195 1
11 195 1
12 195 1
13 195 1
17 195 1
2 196 1
4 196 1
6 196 1
7 196 1
8 196 1
10 196 1
12 196 1
15 196 1
20 196 1
2 197 1
4 197 1
6 197 1
9 197 1
11 197 1
12 197 1
14 197 1
15 197 1
18 197 1
19 197 1
20 197 1
21 197 1
5 198 1
9 198 1
10 198 1
11 198 1
13 198 1
14 198 1
15 198 1
16 198 1
19 198 1
21 198 1
5 200 1
6 200 1
9 200 1
10 200 1
13 200 1
16 200 1
18 200 1
20 200 1
2 201 1
4 201 1
5 201 1
6 201 1
10 201 1
11 201 1
12 201 1
13 201 1
15 201 1
17 201 1
18 201 1
19 201 1
21 201 1
1 202 1
2 202 1
4 202 1
5 202 1
6 202 1
7 202 1
9 202 1
11 202 1
13 202 1
14 202 1
15 202 1
19 202 1
21 202 1
1 203 1
2 203 1
4 203 1
5 203 1
8 203 1
9 203 1
11 203 1
12 203 1
14 203 1
15 203 1
16 203 1
19 203 1
1 204 1
6 204 1
8 204 1
9 204 1
14 204 1
16 204 1
17 204 1
2 205 1
4 205 1
6 205 1
7 205 1
8 205 1
9 205 1
10 205 1
12 205 1
15 205 1
16 205 1
17 205 1
1 206 1
7 206 1
10 206 1
13 206 1
14 206 1
15 206 1
17 206 1
18 206 1
19 206 1
21 206 1
5 207 1
7 207 1
8 207 1
10 207 1
11 207 1
14 207 1
19 207 1
20 207 1
21 207 1
5 209 1
6 209 1
9 209 1
10 209 1
11 209 1
13 209 1
14 209 1
16 209 1
19 209 1
2 210 1
4 210 1
5 210 1
6 210 1
9 210 1
14 210 1
15 210 1
17 210 1
18 210 1
20 210 1
1 211 1
2 211 1
4 211 1
5 211 1
6 211 1
7 211 1
10 211 1
11 211 1
15 211 1
16 211 1
19 211 1
20 211 1
21 211 1
1 212 1
5 212 1
8 212 1
11 212 1
13 212 1
15 212 1
17 212 1
18 212 1
20 212 1
4 213 1
6 213 1
7 213 1
8 213 1
12 213 1
13 213 1
16 213 1
21 213 1
1 214 1
2 214 1
4 214 1
10 214 1
13 214 1
14 214 1
15 214 1
16 214 1
17 214 1
1 215 1
5 215 1
6 215 1
7 215 1
8 215 1
9 215 1
10 215 1
12 215 1
17 215 1
18 215 1
20 215 1
7 216 1
8 216 1
9 216 1
10 216 1
11 216 1
12 216 1
13 216 1
14 216 1
15 216 1
20 216 1
1 217 1
2 217 1
4 217 1
6 217 1
8 217 1
10 217 1
12 217 1
13 217 1
15 217 1
1 218 1
2 218 1
4 218 1
5 218 1
8 218 1
15 218 1
16 218 1
18 218 1
20 218 1
1 219 1
5 219 1
8 219 1
9 219 1
11 219 1
12 219 1
17 219 1
18 219 1
19 219 1
20 219 1
21 219 1
5 220 1
7 220 1
8 220 1
10 220 1
11 220 1
14 220 1
19 220 1
20 220 1
21 220 1
4 221 1
5 221 1
6 221 1
10 221 1
11 221 1
12 221 1
13 221 1
14 221 1
16 221 1
19 221 1
20 221 1
1 222 1
2 222 1
4 222 1
10 222 1
13 222 1
14 222 1
15 222 1
16 222 1
17 222 1
1 223 1
7 223 1
8 223 1
12 223 1
13 223 1
16 223 1
17 223 1
18 223 1
2 224 1
4 224 1
5 224 1
6 224 1
7 224 1
8 224 1
9 224 1
14 224 1
17 224 1
18 224 1
19 224 1
20 224 1
21 224 1
1 225 1
2 225 1
4 225 1
5 225 1
6 225 1
7 225 1
9 225 1
11 225 1
13 225 1
14 225 1
15 225 1
19 225 1
21 225 1
