%%MatrixMarket matrix coordinate integer general
228 475 1596
1 1 1
77 1 1
153 1 1
2 2 1
78 2 1
154 2 1
3 3 1
79 3 1
155 3 1
4 4 1
80 4 1
156 4 1
5 5 1
81 5 1
157 5 1
6 6 1
82 6 1
158 6 1
7 7 1
83 7 1
159 7 1
8 8 1
84 8 1
160 8 1
9 9 1
85 9 1
161 9 1
10 10 1
86 10 1
162 10 1
11 11 1
87 11 1
163 11 1
12 12 1
88 12 1
164 12 1
13 13 1
89 13 1
165 13 1
14 14 1
90 14 1
166 14 1
15 15 1
91 15 1
167 15 1
16 16 1
92 16 1
168 16 1
17 17 1
93 17 1
169 17 1
18 18 1
94 18 1
170 18 1
19 19 1
95 19 1
171 19 1
20 20 1
96 20 1
172 20 1
21 21 1
97 21 1
173 21 1
22 22 1
98 22 1
174 22 1
23 23 1
99 23 1
175 23 1
24 24 1
100 24 1
176 24 1
25 25 1
101 25 1
177 25 1
26 26 1
102 26 1
178 26 1
27 27 1
103 27 1
179 27 1
28 28 1
104 28 1
180 28 1
29 29 1
105 29 1
181 29 1
30 30 1
106 30 1
182 30 1
31 31 1
107 31 1
183 31 1
32 32 1
108 32 1
184 32 1
33 33 1
109 33 1
185 33 1
34 34 1
110 34 1
186 34 1
35 35 1
111 35 1
187 35 1
36 36 1
112 36 1
188 36 1
37 37 1
113 37 1
189 37 1
38 38 1
114 38 1
190 38 1
39 39 1
115 39 1
191 39 1
40 40 1
116 40 1
192 40 1
41 41 1
117 41 1
193 41 1
42 42 1
118 42 1
194 42 1
43 43 1
119 43 1
195 43 1
44 44 1
120 44 1
196 44 1
45 45 1
121 45 1
197 45 1
46 46 1
122 46 1
198 46 1
47 47 1
123 47 1
199 47 1
48 48 1
124 48 1
200 48 1
49 49 1
125 49 1
201 49 1
50 50 1
126 50 1
202 50 1
51 51 1
127 51 1
203 51 1
52 52 1
128 52 1
204 52 1
53 53 1
129 53 1
205 53 1
54 54 1
130 54 1
206 54 1
55 55 1
131 55 1
207 55 1
56 56 1
132 56 1
208 56 1
57 57 1
133 57 1
209 57 1
58 58 1
134 58 1
210 58 1
59 59 1
135 59 1
211 59 1
60 60 1
136 60 1
212 60 1
61 61 1
137 61 1
213 61 1
62 62 1
138 62 1
214 62 1
63 63 1
139 63 1
215 63 1
64 64 1
140 64 1
216 64 1
65 65 1
141 65 1
217 65 1
66 66 1
142 66 1
218 66 1
67 67 1
143 67 1
219 67 1
68 68 1
144 68 1
220 68 1
69 69 1
145 69 1
221 69 1
70 70 1
146 70 1
222 70 1
71 71 1
147 71 1
223 71 1
72 72 1
148 72 1
224 72 1
73 73 1
149 73 1
225 73 1
74 74 1
150 74 1
226 74 1
75 75 1
151 75 1
227 75 1
76 76 1
152 76 1
228 76 1
1 77 1
79 77 1
169 77 1
2 78 1
80 78 1
170 78 1
3 79 1
81 79 1
171 79 1
4 80 1
82 80 1
153 80 1
5 81 1
83 81 1
154 81 1
6 82 1
84 82 1
155 82 1
7 83 1
85 83 1
156 83 1
8 84 1
86 84 1
157 84 1
9 85 1
87 85 1
158 85 1
10 86 1
88 86 1
159 86 1
11 87 1
89 87 1
160 87 1
12 88 1
90 88 1
161 88 1
13 89 1
91 89 1
162 89 1
14 90 1
92 90 1
163 90 1
15 91 1
93 91 1
164 91 1
16 92 1
94 92 1
165 92 1
17 93 1
95 93 1
166 93 1
18 94 1
77 94 1
167 94 1
19 95 1
78 95 1
168 95 1
20 96 1
98 96 1
188 96 1
21 97 1
99 97 1
189 97 1
22 98 1
100 98 1
190 98 1
23 99 1
101 99 1
172 99 1
24 100 1
102 100 1
173 100 1
25 101 1
103 101 1
174 101 1
26 102 1
104 102 1
175 102 1
27 103 1
105 103 1
176 103 1
28 104 1
106 104 1
177 104 1
29 105 1
107 105 1
178 105 1
30 106 1
108 106 1
179 106 1
31 107 1
109 107 1
180 107 1
32 108 1
110 108 1
181 108 1
33 109 1
111 109 1
182 109 1
34 110 1
112 110 1
183 110 1
35 111 1
113 111 1
184 111 1
36 112 1
114 112 1
185 112 1
37 113 1
96 113 1
186 113 1
38 114 1
97 114 1
187 114 1
39 115 1
117 115 1
207 115 1
40 116 1
118 116 1
208 116 1
41 117 1
119 117 1
209 117 1
42 118 1
120 118 1
191 118 1
43 119 1
121 119 1
192 119 1
44 120 1
122 120 1
193 120 1
45 121 1
123 121 1
194 121 1
46 122 1
124 122 1
195 122 1
47 123 1
125 123 1
196 123 1
48 124 1
126 124 1
197 124 1
49 125 1
127 125 1
198 125 1
50 126 1
128 126 1
199 126 1
51 127 1
129 127 1
200 127 1
52 128 1
130 128 1
201 128 1
53 129 1
131 129 1
202 129 1
54 130 1
132 130 1
203 130 1
55 131 1
133 131 1
204 131 1
56 132 1
115 132 1
205 132 1
57 133 1
116 133 1
206 133 1
58 134 1
136 134 1
226 134 1
59 135 1
137 135 1
227 135 1
60 136 1
138 136 1
228 136 1
61 137 1
139 137 1
210 137 1
62 138 1
140 138 1
211 138 1
63 139 1
141 139 1
212 139 1
64 140 1
142 140 1
213 140 1
65 141 1
143 141 1
214 141 1
66 142 1
144 142 1
215 142 1
67 143 1
145 143 1
216 143 1
68 144 1
146 144 1
217 144 1
69 145 1
147 145 1
218 145 1
70 146 1
148 146 1
219 146 1
71 147 1
149 147 1
220 147 1
72 148 1
150 148 1
221 148 1
73 149 1
151 149 1
222 149 1
74 150 1
152 150 1
223 150 1
75 151 1
134 151 1
224 151 1
76 152 1
135 152 1
225 152 1
1 153 1
83 153 1
160 153 1
2 154 1
84 154 1
161 154 1
3 155 1
85 155 1
162 155 1
4 156 1
86 156 1
163 156 1
5 157 1
87 157 1
164 157 1
6 158 1
88 158 1
165 158 1
7 159 1
89 159 1
166 159 1
8 160 1
90 160 1
167 160 1
9 161 1
91 161 1
168 161 1
10 162 1
92 162 1
169 162 1
11 163 1
93 163 1
170 163 1
12 164 1
94 164 1
171 164 1
13 165 1
95 165 1
153 165 1
14 166 1
77 166 1
154 166 1
15 167 1
78 167 1
155 167 1
16 168 1
79 168 1
156 168 1
17 169 1
80 169 1
157 169 1
18 170 1
81 170 1
158 170 1
19 171 1
82 171 1
159 171 1
20 172 1
102 172 1
179 172 1
21 173 1
103 173 1
180 173 1
22 174 1
104 174 1
181 174 1
23 175 1
105 175 1
182 175 1
24 176 1
106 176 1
183 176 1
25 177 1
107 177 1
184 177 1
26 178 1
108 178 1
185 178 1
27 179 1
109 179 1
186 179 1
28 180 1
110 180 1
187 180 1
29 181 1
111 181 1
188 181 1
30 182 1
112 182 1
189 182 1
31 183 1
113 183 1
190 183 1
32 184 1
114 184 1
172 184 1
33 185 1
96 185 1
173 185 1
34 186 1
97 186 1
174 186 1
35 187 1
98 187 1
175 187 1
36 188 1
99 188 1
176 188 1
37 189 1
100 189 1
177 189 1
38 190 1
101 190 1
178 190 1
39 191 1
121 191 1
198 191 1
40 192 1
122 192 1
199 192 1
41 193 1
123 193 1
200 193 1
42 194 1
124 194 1
201 194 1
43 195 1
125 195 1
202 195 1
44 196 1
126 196 1
203 196 1
45 197 1
127 197 1
204 197 1
46 198 1
128 198 1
205 198 1
47 199 1
129 199 1
206 199 1
48 200 1
130 200 1
207 200 1
49 201 1
131 201 1
208 201 1
50 202 1
132 202 1
209 202 1
51 203 1
133 203 1
191 203 1
52 204 1
115 204 1
192 204 1
53 205 1
116 205 1
193 205 1
54 206 1
117 206 1
194 206 1
55 207 1
118 207 1
195 207 1
56 208 1
119 208 1
196 208 1
57 209 1
120 209 1
197 209 1
58 210 1
140 210 1
217 210 1
59 211 1
141 211 1
218 211 1
60 212 1
142 212 1
219 212 1
61 213 1
143 213 1
220 213 1
62 214 1
144 214 1
221 214 1
63 215 1
145 215 1
222 215 1
64 216 1
146 216 1
223 216 1
65 217 1
147 217 1
224 217 1
66 218 1
148 218 1
225 218 1
67 219 1
149 219 1
226 219 1
68 220 1
150 220 1
227 220 1
69 221 1
151 221 1
228 221 1
70 222 1
152 222 1
210 222 1
71 223 1
134 223 1
211 223 1
72 224 1
135 224 1
212 224 1
73 225 1
136 225 1
213 225 1
74 226 1
137 226 1
214 226 1
75 227 1
138 227 1
215 227 1
76 228 1
139 228 1
216 228 1
1 229 1
86 229 1
164 229 1
2 230 1
87 230 1
165 230 1
3 231 1
88 231 1
166 231 1
4 232 1
89 232 1
167 232 1
5 233 1
90 233 1
168 233 1
6 234 1
91 234 1
169 234 1
7 235 1
92 235 1
170 235 1
8 236 1
93 236 1
171 236 1
9 237 1
94 237 1
153 237 1
10 238 1
95 238 1
154 238 1
11 239 1
77 239 1
155 239 1
12 240 1
78 240 1
156 240 1
13 241 1
79 241 1
157 241 1
14 242 1
80 242 1
158 242 1
15 243 1
81 243 1
159 243 1
16 244 1
82 244 1
160 244 1
17 245 1
83 245 1
161 245 1
18 246 1
84 246 1
162 246 1
19 247 1
85 247 1
163 247 1
20 248 1
105 248 1
183 248 1
21 249 1
106 249 1
184 249 1
22 250 1
107 250 1
185 250 1
23 251 1
108 251 1
186 251 1
24 252 1
109 252 1
187 252 1
25 253 1
110 253 1
188 253 1
26 254 1
111 254 1
189 254 1
27 255 1
112 255 1
190 255 1
28 256 1
113 256 1
172 256 1
29 257 1
114 257 1
173 257 1
30 258 1
96 258 1
174 258 1
31 259 1
97 259 1
175 259 1
32 260 1
98 260 1
176 260 1
33 261 1
99 261 1
177 261 1
34 262 1
100 262 1
178 262 1
35 263 1
101 263 1
179 263 1
36 264 1
102 264 1
180 264 1
37 265 1
103 265 1
181 265 1
38 266 1
104 266 1
182 266 1
39 267 1
124 267 1
202 267 1
40 268 1
125 268 1
203 268 1
41 269 1
126 269 1
204 269 1
42 270 1
127 270 1
205 270 1
43 271 1
128 271 1
206 271 1
44 272 1
129 272 1
207 272 1
45 273 1
130 273 1
208 273 1
46 274 1
131 274 1
209 274 1
47 275 1
132 275 1
191 275 1
48 276 1
133 276 1
192 276 1
49 277 1
115 277 1
193 277 1
50 278 1
116 278 1
194 278 1
51 279 1
117 279 1
195 279 1
52 280 1
118 280 1
196 280 1
53 281 1
119 281 1
197 281 1
54 282 1
120 282 1
198 282 1
55 283 1
121 283 1
199 283 1
56 284 1
122 284 1
200 284 1
57 285 1
123 285 1
201 285 1
58 286 1
143 286 1
221 286 1
59 287 1
144 287 1
222 287 1
60 288 1
145 288 1
223 288 1
61 289 1
146 289 1
224 289 1
62 290 1
147 290 1
225 290 1
63 291 1
148 291 1
226 291 1
64 292 1
149 292 1
227 292 1
65 293 1
150 293 1
228 293 1
66 294 1
151 294 1
210 294 1
67 295 1
152 295 1
211 295 1
68 296 1
134 296 1
212 296 1
69 297 1
135 297 1
213 297 1
70 298 1
136 298 1
214 298 1
71 299 1
137 299 1
215 299 1
72 300 1
138 300 1
216 300 1
73 301 1
139 301 1
217 301 1
74 302 1
140 302 1
218 302 1
75 303 1
141 303 1
219 303 1
76 304 1
142 304 1
220 304 1
1 305 1
20 305 1
39 305 1
58 305 1
2 306 1
21 306 1
40 306 1
59 306 1
3 307 1
22 307 1
41 307 1
60 307 1
4 308 1
23 308 1
42 308 1
61 308 1
5 309 1
24 309 1
43 309 1
62 309 1
6 310 1
25 310 1
44 310 1
63 310 1
7 311 1
26 311 1
45 311 1
64 311 1
8 312 1
27 312 1
46 312 1
65 312 1
9 313 1
28 313 1
47 313 1
66 313 1
10 314 1
29 314 1
48 314 1
67 314 1
11 315 1
30 315 1
49 315 1
68 315 1
12 316 1
31 316 1
50 316 1
69 316 1
13 317 1
32 317 1
51 317 1
70 317 1
14 318 1
33 318 1
52 318 1
71 318 1
15 319 1
34 319 1
53 319 1
72 319 1
16 320 1
35 320 1
54 320 1
73 320 1
17 321 1
36 321 1
55 321 1
74 321 1
18 322 1
37 322 1
56 322 1
75 322 1
19 323 1
38 323 1
57 323 1
76 323 1
1 324 1
37 324 1
52 324 1
68 324 1
2 325 1
38 325 1
53 325 1
69 325 1
3 326 1
20 326 1
54 326 1
70 326 1
4 327 1
21 327 1
55 327 1
71 327 1
5 328 1
22 328 1
56 328 1
72 328 1
6 329 1
23 329 1
57 329 1
73 329 1
7 330 1
24 330 1
39 330 1
74 330 1
8 331 1
25 331 1
40 331 1
75 331 1
9 332 1
26 332 1
41 332 1
76 332 1
10 333 1
27 333 1
42 333 1
58 333 1
11 334 1
28 334 1
43 334 1
59 334 1
12 335 1
29 335 1
44 335 1
60 335 1
13 336 1
30 336 1
45 336 1
61 336 1
14 337 1
31 337 1
46 337 1
62 337 1
15 338 1
32 338 1
47 338 1
63 338 1
16 339 1
33 339 1
48 339 1
64 339 1
17 340 1
34 340 1
49 340 1
65 340 1
18 341 1
35 341 1
50 341 1
66 341 1
19 342 1
36 342 1
51 342 1
67 342 1
1 343 1
23 343 1
51 343 1
66 343 1
2 344 1
24 344 1
52 344 1
67 344 1
3 345 1
25 345 1
53 345 1
68 345 1
4 346 1
26 346 1
54 346 1
69 346 1
5 347 1
27 347 1
55 347 1
70 347 1
6 348 1
28 348 1
56 348 1
71 348 1
7 349 1
29 349 1
57 349 1
72 349 1
8 350 1
30 350 1
39 350 1
73 350 1
9 351 1
31 351 1
40 351 1
74 351 1
10 352 1
32 352 1
41 352 1
75 352 1
11 353 1
33 353 1
42 353 1
76 353 1
12 354 1
34 354 1
43 354 1
58 354 1
13 355 1
35 355 1
44 355 1
59 355 1
14 356 1
36 356 1
45 356 1
60 356 1
15 357 1
37 357 1
46 357 1
61 357 1
16 358 1
38 358 1
47 358 1
62 358 1
17 359 1
20 359 1
48 359 1
63 359 1
18 360 1
21 360 1
49 360 1
64 360 1
19 361 1
22 361 1
50 361 1
65 361 1
77 362 1
96 362 1
115 362 1
134 362 1
78 363 1
97 363 1
116 363 1
135 363 1
79 364 1
98 364 1
117 364 1
136 364 1
80 365 1
99 365 1
118 365 1
137 365 1
81 366 1
100 366 1
119 366 1
138 366 1
82 367 1
101 367 1
120 367 1
139 367 1
83 368 1
102 368 1
121 368 1
140 368 1
84 369 1
103 369 1
122 369 1
141 369 1
85 370 1
104 370 1
123 370 1
142 370 1
86 371 1
105 371 1
124 371 1
143 371 1
87 372 1
106 372 1
125 372 1
144 372 1
88 373 1
107 373 1
126 373 1
145 373 1
89 374 1
108 374 1
127 374 1
146 374 1
90 375 1
109 375 1
128 375 1
147 375 1
91 376 1
110 376 1
129 376 1
148 376 1
92 377 1
111 377 1
130 377 1
149 377 1
93 378 1
112 378 1
131 378 1
150 378 1
94 379 1
113 379 1
132 379 1
151 379 1
95 380 1
114 380 1
133 380 1
152 380 1
77 381 1
113 381 1
128 381 1
144 381 1
78 382 1
114 382 1
129 382 1
145 382 1
79 383 1
96 383 1
130 383 1
146 383 1
80 384 1
97 384 1
131 384 1
147 384 1
81 385 1
98 385 1
132 385 1
148 385 1
82 386 1
99 386 1
133 386 1
149 386 1
83 387 1
100 387 1
115 387 1
150 387 1
84 388 1
101 388 1
116 388 1
151 388 1
85 389 1
102 389 1
117 389 1
152 389 1
86 390 1
103 390 1
118 390 1
134 390 1
87 391 1
104 391 1
119 391 1
135 391 1
88 392 1
105 392 1
120 392 1
136 392 1
89 393 1
106 393 1
121 393 1
137 393 1
90 394 1
107 394 1
122 394 1
138 394 1
91 395 1
108 395 1
123 395 1
139 395 1
92 396 1
109 396 1
124 396 1
140 396 1
93 397 1
110 397 1
125 397 1
141 397 1
94 398 1
111 398 1
126 398 1
142 398 1
95 399 1
112 399 1
127 399 1
143 399 1
77 400 1
99 400 1
127 400 1
142 400 1
78 401 1
100 401 1
128 401 1
143 401 1
79 402 1
101 402 1
129 402 1
144 402 1
80 403 1
102 403 1
130 403 1
145 403 1
81 404 1
103 404 1
131 404 1
146 404 1
82 405 1
104 405 1
132 405 1
147 405 1
83 406 1
105 406 1
133 406 1
148 406 1
84 407 1
106 407 1
115 407 1
149 407 1
85 408 1
107 408 1
116 408 1
150 408 1
86 409 1
108 409 1
117 409 1
151 409 1
87 410 1
109 410 1
118 410 1
152 410 1
88 411 1
110 411 1
119 411 1
134 411 1
89 412 1
111 412 1
120 412 1
135 412 1
90 413 1
112 413 1
121 413 1
136 413 1
91 414 1
113 414 1
122 414 1
137 414 1
92 415 1
114 415 1
123 415 1
138 415 1
93 416 1
96 416 1
124 416 1
139 416 1
94 417 1
97 417 1
125 417 1
140 417 1
95 418 1
98 418 1
126 418 1
141 418 1
153 419 1
172 419 1
191 419 1
210 419 1
154 420 1
173 420 1
192 420 1
211 420 1
155 421 1
174 421 1
193 421 1
212 421 1
156 422 1
175 422 1
194 422 1
213 422 1
157 423 1
176 423 1
195 423 1
214 423 1
158 424 1
177 424 1
196 424 1
215 424 1
159 425 1
178 425 1
197 425 1
216 425 1
160 426 1
179 426 1
198 426 1
217 426 1
161 427 1
180 427 1
199 427 1
218 427 1
162 428 1
181 428 1
200 428 1
219 428 1
163 429 1
182 429 1
201 429 1
220 429 1
164 430 1
183 430 1
202 430 1
221 430 1
165 431 1
184 431 1
203 431 1
222 431 1
166 432 1
185 432 1
204 432 1
223 432 1
167 433 1
186 433 1
205 433 1
224 433 1
168 434 1
187 434 1
206 434 1
225 434 1
169 435 1
188 435 1
207 435 1
226 435 1
170 436 1
189 436 1
208 436 1
227 436 1
171 437 1
190 437 1
209 437 1
228 437 1
153 438 1
189 438 1
204 438 1
220 438 1
154 439 1
190 439 1
205 439 1
221 439 1
155 440 1
172 440 1
206 440 1
222 440 1
156 441 1
173 441 1
207 441 1
223 441 1
157 442 1
174 442 1
208 442 1
224 442 1
158 443 1
175 443 1
209 443 1
225 443 1
159 444 1
176 444 1
191 444 1
226 444 1
160 445 1
177 445 1
192 445 1
227 445 1
161 446 1
178 446 1
193 446 1
228 446 1
162 447 1
179 447 1
194 447 1
210 447 1
163 448 1
180 448 1
195 448 1
211 448 1
164 449 1
181 449 1
196 449 1
212 449 1
165 450 1
182 450 1
197 450 1
213 450 1
166 451 1
183 451 1
198 451 1
214 451 1
167 452 1
184 452 1
199 452 1
215 452 1
168 453 1
185 453 1
200 453 1
216 453 1
169 454 1
186 454 1
201 454 1
217 454 1
170 455 1
187 455 1
202 455 1
218 455 1
171 456 1
188 456 1
203 456 1
219 456 1
153 457 1
175 457 1
203 457 1
218 457 1
154 458 1
176 458 1
204 458 1
219 458 1
155 459 1
177 459 1
205 459 1
220 459 1
156 460 1
178 460 1
206 460 1
221 460 1
157 461 1
179 461 1
207 461 1
222 461 1
158 462 1
180 462 1
208 462 1
223 462 1
159 463 1
181 463 1
209 463 1
224 463 1
160 464 1
182 464 1
191 464 1
225 464 1
161 465 1
183 465 1
192 465 1
226 465 1
162 466 1
184 466 1
193 466 1
227 466 1
163 467 1
185 467 1
194 467 1
228 467 1
164 468 1
186 468 1
195 468 1
210 468 1
165 469 1
187 469 1
196 469 1
211 469 1
166 470 1
188 470 1
197 470 1
212 470 1
167 471 1
189 471 1
198 471 1
213 471 1
168 472 1
190 472 1
199 472 1
214 472 1
169 473 1
172 473 1
200 473 1
215 473 1
170 474 1
173 474 1
201 474 1
216 474 1
171 475 1
174 475 1
202 475 1
217 475 1
