%%MatrixMarket matrix coordinate integer general
108 225 756
1 1 1
37 1 1
73 1 1
2 2 1
38 2 1
74 2 1
3 3 1
39 3 1
75 3 1
4 4 1
40 4 1
76 4 1
5 5 1
41 5 1
77 5 1
6 6 1
42 6 1
78 6 1
7 7 1
43 7 1
79 7 1
8 8 1
44 8 1
80 8 1
9 9 1
45 9 1
81 9 1
10 10 1
46 10 1
82 10 1
11 11 1
47 11 1
83 11 1
12 12 1
48 12 1
84 12 1
13 13 1
49 13 1
85 13 1
14 14 1
50 14 1
86 14 1
15 15 1
51 15 1
87 15 1
16 16 1
52 16 1
88 16 1
17 17 1
53 17 1
89 17 1
18 18 1
54 18 1
90 18 1
19 19 1
55 19 1
91 19 1
20 20 1
56 20 1
92 20 1
21 21 1
57 21 1
93 21 1
22 22 1
58 22 1
94 22 1
23 23 1
59 23 1
95 23 1
24 24 1
60 24 1
96 24 1
25 25 1
61 25 1
97 25 1
26 26 1
62 26 1
98 26 1
27 27 1
63 27 1
99 27 1
28 28 1
64 28 1
100 28 1
29 29 1
65 29 1
101 29 1
30 30 1
66 30 1
102 30 1
31 31 1
67 31 1
103 31 1
32 32 1
68 32 1
104 32 1
33 33 1
69 33 1
105 33 1
34 34 1
70 34 1
106 34 1
35 35 1
71 35 1
107 35 1
36 36 1
72 36 1
108 36 1
1 37 1
38 37 1
77 37 1
2 38 1
39 38 1
78 38 1
3 39 1
40 39 1
79 39 1
4 40 1
41 40 1
80 40 1
5 41 1
42 41 1
81 41 1
6 42 1
43 42 1
73 42 1
7 43 1
44 43 1
74 43 1
8 44 1
45 44 1
75 44 1
9 45 1
37 45 1
76 45 1
10 46 1
47 46 1
86 46 1
11 47 1
48 47 1
87 47 1
12 48 1
49 48 1
88 48 1
13 49 1
50 49 1
89 49 1
14 50 1
51 50 1
90 50 1
15 51 1
52 51 1
82 51 1
16 52 1
53 52 1
83 52 1
17 53 1
54 53 1
84 53 1
18 54 1
46 54 1
85 54 1
19 55 1
56 55 1
95 55 1
20 56 1
57 56 1
96 56 1
21 57 1
58 57 1
97 57 1
22 58 1
59 58 1
98 58 1
23 59 1
60 59 1
99 59 1
24 60 1
61 60 1
91 60 1
25 61 1
62 61 1
92 61 1
26 62 1
63 62 1
93 62 1
27 63 1
55 63 1
94 63 1
28 64 1
65 64 1
104 64 1
29 65 1
66 65 1
105 65 1
30 66 1
67 66 1
106 66 1
31 67 1
68 67 1
107 67 1
32 68 1
69 68 1
108 68 1
33 69 1
70 69 1
100 69 1
34 70 1
71 70 1
101 70 1
35 71 1
72 71 1
102 71 1
36 72 1
64 72 1
103 72 1
1 73 1
43 73 1
78 73 1
2 74 1
44 74 1
79 74 1
3 75 1
45 75 1
80 75 1
4 76 1
37 76 1
81 76 1
5 77 1
38 77 1
73 77 1
6 78 1
39 78 1
74 78 1
7 79 1
40 79 1
75 79 1
8 80 1
41 80 1
76 80 1
9 81 1
42 81 1
77 81 1
10 82 1
52 82 1
87 82 1
11 83 1
53 83 1
88 83 1
12 84 1
54 84 1
89 84 1
13 85 1
46 85 1
90 85 1
14 86 1
47 86 1
82 86 1
15 87 1
48 87 1
83 87 1
16 88 1
49 88 1
84 88 1
17 89 1
50 89 1
85 89 1
18 90 1
51 90 1
86 90 1
19 91 1
61 91 1
96 91 1
20 92 1
62 92 1
97 92 1
21 93 1
63 93 1
98 93 1
22 94 1
55 94 1
99 94 1
23 95 1
56 95 1
91 95 1
24 96 1
57 96 1
92 96 1
25 97 1
58 97 1
93 97 1
26 98 1
59 98 1
94 98 1
27 99 1
60 99 1
95 99 1
28 100 1
70 100 1
105 100 1
29 101 1
71 101 1
106 101 1
30 102 1
72 102 1
107 102 1
31 103 1
64 103 1
108 103 1
32 104 1
65 104 1
100 104 1
33 105 1
66 105 1
101 105 1
34 106 1
67 106 1
102 106 1
35 107 1
68 107 1
103 107 1
36 108 1
69 108 1
104 108 1
1 109 1
44 109 1
75 109 1
2 110 1
45 110 1
76 110 1
3 111 1
37 111 1
77 111 1
4 112 1
38 112 1
78 112 1
5 113 1
39 113 1
79 113 1
6 114 1
40 114 1
80 114 1
7 115 1
41 115 1
81 115 1
8 116 1
42 116 1
73 116 1
9 117 1
43 117 1
74 117 1
10 118 1
53 118 1
84 118 1
11 119 1
54 119 1
85 119 1
12 120 1
46 120 1
86 120 1
13 121 1
47 121 1
87 121 1
14 122 1
48 122 1
88 122 1
15 123 1
49 123 1
89 123 1
16 124 1
50 124 1
90 124 1
17 125 1
51 125 1
82 125 1
18 126 1
52 126 1
83 126 1
19 127 1
62 127 1
93 127 1
20 128 1
63 128 1
94 128 1
21 129 1
55 129 1
95 129 1
22 130 1
56 130 1
96 130 1
23 131 1
57 131 1
97 131 1
24 132 1
58 132 1
98 132 1
25 133 1
59 133 1
99 133 1
26 134 1
60 134 1
91 134 1
27 135 1
61 135 1
92 135 1
28 136 1
71 136 1
102 136 1
29 137 1
72 137 1
103 137 1
30 138 1
64 138 1
104 138 1
31 139 1
65 139 1
105 139 1
32 140 1
66 140 1
106 140 1
33 141 1
67 141 1
107 141 1
34 142 1
68 142 1
108 142 1
35 143 1
69 143 1
100 143 1
36 144 1
70 144 1
101 144 1
1 145 1
10 145 1
19 145 1
28 145 1
2 146 1
11 146 1
20 146 1
29 146 1
3 147 1
12 147 1
21 147 1
30 147 1
4 148 1
13 148 1
22 148 1
31 148 1
5 149 1
14 149 1
23 149 1
32 149 1
6 150 1
15 150 1
24 150 1
33 150 1
7 151 1
16 151 1
25 151 1
34 151 1
8 152 1
17 152 1
26 152 1
35 152 1
9 153 1
18 153 1
27 153 1
36 153 1
1 154 1
18 154 1
22 154 1
30 154 1
2 155 1
10 155 1
23 155 1
31 155 1
3 156 1
11 156 1
24 156 1
32 156 1
4 157 1
12 157 1
25 157 1
33 157 1
5 158 1
13 158 1
26 158 1
34 158 1
6 159 1
14 159 1
27 159 1
35 159 1
7 160 1
15 160 1
19 160 1
36 160 1
8 161 1
16 161 1
20 161 1
28 161 1
9 162 1
17 162 1
21 162 1
29 162 1
1 163 1
15 163 1
23 163 1
35 163 1
2 164 1
16 164 1
24 164 1
36 164 1
3 165 1
17 165 1
25 165 1
28 165 1
4 166 1
18 166 1
26 166 1
29 166 1
5 167 1
10 167 1
27 167 1
30 167 1
6 168 1
11 168 1
19 168 1
31 168 1
7 169 1
12 169 1
20 169 1
32 169 1
8 170 1
13 170 1
21 170 1
33 170 1
9 171 1
14 171 1
22 171 1
34 171 1
37 172 1
46 172 1
55 172 1
64 172 1
38 173 1
47 173 1
56 173 1
65 173 1
39 174 1
48 174 1
57 174 1
66 174 1
40 175 1
49 175 1
58 175 1
67 175 1
41 176 1
50 176 1
59 176 1
68 176 1
42 177 1
51 177 1
60 177 1
69 177 1
43 178 1
52 178 1
61 178 1
70 178 1
44 179 1
53 179 1
62 179 1
71 179 1
45 180 1
54 180 1
63 180 1
72 180 1
37 181 1
54 181 1
58 181 1
66 181 1
38 182 1
46 182 1
59 182 1
67 182 1
39 183 1
47 183 1
60 183 1
68 183 1
40 184 1
48 184 1
61 184 1
69 184 1
41 185 1
49 185 1
62 185 1
70 185 1
42 186 1
50 186 1
63 186 1
71 186 1
43 187 1
51 187 1
55 187 1
72 187 1
44 188 1
52 188 1
56 188 1
64 188 1
45 189 1
53 189 1
57 189 1
65 189 1
37 190 1
51 190 1
59 190 1
71 190 1
38 191 1
52 191 1
60 191 1
72 191 1
39 192 1
53 192 1
61 192 1
64 192 1
40 193 1
54 193 1
62 193 1
65 193 1
41 194 1
46 194 1
63 194 1
66 194 1
42 195 1
47 195 1
55 195 1
67 195 1
43 196 1
48 196 1
56 196 1
68 196 1
44 197 1
49 197 1
57 197 1
69 197 1
45 198 1
50 198 1
58 198 1
70 198 1
73 199 1
82 199 1
91 199 1
100 199 1
74 200 1
83 200 1
92 200 1
101 200 1
75 201 1
84 201 1
93 201 1
102 201 1
76 202 1
85 202 1
94 202 1
103 202 1
77 203 1
86 203 1
95 203 1
104 203 1
78 204 1
87 204 1
96 204 1
105 204 1
79 205 1
88 205 1
97 205 1
106 205 1
80 206 1
89 206 1
98 206 1
107 206 1
81 207 1
90 207 1
99 207 1
108 207 1
73 208 1
90 208 1
94 208 1
102 208 1
74 209 1
82 209 1
95 209 1
103 209 1
75 210 1
83 210 1
96 210 1
104 210 1
76 211 1
84 211 1
97 211 1
105 211 1
77 212 1
85 212 1
98 212 1
106 212 1
78 213 1
86 213 1
99 213 1
107 213 1
79 214 1
87 214 1
91 214 1
108 214 1
80 215 1
88 215 1
92 215 1
100 215 1
81 216 1
89 216 1
93 216 1
101 216 1
73 217 1
87 217 1
95 217 1
107 217 1
74 218 1
88 218 1
96 218 1
108 218 1
75 219 1
89 219 1
97 219 1
100 219 1
76 220 1
90 220 1
98 220 1
101 220 1
77 221 1
82 221 1
99 221 1
102 221 1
78 222 1
83 222 1
91 222 1
103 222 1
79 223 1
84 223 1
92 223 1
104 223 1
80 224 1
85 224 1
93 224 1
105 224 1
81 225 1
86 225 1
94 225 1
106 225 1
