%%MatrixMarket matrix coordinate integer general
204 425 1428
1 1 1
18 1 1
35 1 1
2 2 1
19 2 1
36 2 1
3 3 1
20 3 1
37 3 1
4 4 1
21 4 1
38 4 1
5 5 1
22 5 1
39 5 1
6 6 1
23 6 1
40 6 1
7 7 1
24 7 1
41 7 1
8 8 1
25 8 1
42 8 1
9 9 1
26 9 1
43 9 1
10 10 1
27 10 1
44 10 1
11 11 1
28 11 1
45 11 1
12 12 1
29 12 1
46 12 1
13 13 1
30 13 1
47 13 1
14 14 1
31 14 1
48 14 1
15 15 1
32 15 1
49 15 1
16 16 1
33 16 1
50 16 1
17 17 1
34 17 1
51 17 1
1 18 1
19 18 1
43 18 1
2 19 1
20 19 1
44 19 1
3 20 1
21 20 1
45 20 1
4 21 1
22 21 1
46 21 1
5 22 1
23 22 1
47 22 1
6 23 1
24 23 1
48 23 1
7 24 1
25 24 1
49 24 1
8 25 1
26 25 1
50 25 1
9 26 1
27 26 1
51 26 1
10 27 1
28 27 1
35 27 1
11 28 1
29 28 1
36 28 1
12 29 1
30 29 1
37 29 1
13 30 1
31 30 1
38 30 1
14 31 1
32 31 1
39 31 1
15 32 1
33 32 1
40 32 1
16 33 1
34 33 1
41 33 1
17 34 1
18 34 1
42 34 1
1 35 1
20 35 1
47 35 1
2 36 1
21 36 1
48 36 1
3 37 1
22 37 1
49 37 1
4 38 1
23 38 1
50 38 1
5 39 1
24 39 1
51 39 1
6 40 1
25 40 1
35 40 1
7 41 1
26 41 1
36 41 1
8 42 1
27 42 1
37 42 1
9 43 1
28 43 1
38 43 1
10 44 1
29 44 1
39 44 1
11 45 1
30 45 1
40 45 1
12 46 1
31 46 1
41 46 1
13 47 1
32 47 1
42 47 1
14 48 1
33 48 1
43 48 1
15 49 1
34 49 1
44 49 1
16 50 1
18 50 1
45 50 1
17 51 1
19 51 1
46 51 1
1 52 1
29 52 1
48 52 1
2 53 1
30 53 1
49 53 1
3 54 1
31 54 1
50 54 1
4 55 1
32 55 1
51 55 1
5 56 1
33 56 1
35 56 1
6 57 1
34 57 1
36 57 1
7 58 1
18 58 1
37 58 1
8 59 1
19 59 1
38 59 1
9 60 1
20 60 1
39 60 1
10 61 1
21 61 1
40 61 1
11 62 1
22 62 1
41 62 1
12 63 1
23 63 1
42 63 1
13 64 1
24 64 1
43 64 1
14 65 1
25 65 1
44 65 1
15 66 1
26 66 1
45 66 1
16 67 1
27 67 1
46 67 1
17 68 1
28 68 1
47 68 1
52 69 1
69 69 1
86 69 1
53 70 1
70 70 1
87 70 1
54 71 1
71 71 1
88 71 1
55 72 1
72 72 1
89 72 1
56 73 1
73 73 1
90 73 1
57 74 1
74 74 1
91 74 1
58 75 1
75 75 1
92 75 1
59 76 1
76 76 1
93 76 1
60 77 1
77 77 1
94 77 1
61 78 1
78 78 1
95 78 1
62 79 1
79 79 1
96 79 1
63 80 1
80 80 1
97 80 1
64 81 1
81 81 1
98 81 1
65 82 1
82 82 1
99 82 1
66 83 1
83 83 1
100 83 1
67 84 1
84 84 1
101 84 1
68 85 1
85 85 1
102 85 1
52 86 1
70 86 1
94 86 1
53 87 1
71 87 1
95 87 1
54 88 1
72 88 1
96 88 1
55 89 1
73 89 1
97 89 1
56 90 1
74 90 1
98 90 1
57 91 1
75 91 1
99 91 1
58 92 1
76 92 1
100 92 1
59 93 1
77 93 1
101 93 1
60 94 1
78 94 1
102 94 1
61 95 1
79 95 1
86 95 1
62 96 1
80 96 1
87 96 1
63 97 1
81 97 1
88 97 1
64 98 1
82 98 1
89 98 1
65 99 1
83 99 1
90 99 1
66 100 1
84 100 1
91 100 1
67 101 1
85 101 1
92 101 1
68 102 1
69 102 1
93 102 1
52 103 1
71 103 1
98 103 1
53 104 1
72 104 1
99 104 1
54 105 1
73 105 1
100 105 1
55 106 1
74 106 1
101 106 1
56 107 1
75 107 1
102 107 1
57 108 1
76 108 1
86 108 1
58 109 1
77 109 1
87 109 1
59 110 1
78 110 1
88 110 1
60 111 1
79 111 1
89 111 1
61 112 1
80 112 1
90 112 1
62 113 1
81 113 1
91 113 1
63 114 1
82 114 1
92 114 1
64 115 1
83 115 1
93 115 1
65 116 1
84 116 1
94 116 1
66 117 1
85 117 1
95 117 1
67 118 1
69 118 1
96 118 1
68 119 1
70 119 1
97 119 1
52 120 1
80 120 1
99 120 1
53 121 1
81 121 1
100 121 1
54 122 1
82 122 1
101 122 1
55 123 1
83 123 1
102 123 1
56 124 1
84 124 1
86 124 1
57 125 1
85 125 1
87 125 1
58 126 1
69 126 1
88 126 1
59 127 1
70 127 1
89 127 1
60 128 1
71 128 1
90 128 1
61 129 1
72 129 1
91 129 1
62 130 1
73 130 1
92 130 1
63 131 1
74 131 1
93 131 1
64 132 1
75 132 1
94 132 1
65 133 1
76 133 1
95 133 1
66 134 1
77 134 1
96 134 1
67 135 1
78 135 1
97 135 1
68 136 1
79 136 1
98 136 1
103 137 1
120 137 1
137 137 1
104 138 1
121 138 1
138 138 1
105 139 1
122 139 1
139 139 1
106 140 1
123 140 1
140 140 1
107 141 1
124 141 1
141 141 1
108 142 1
125 142 1
142 142 1
109 143 1
126 143 1
143 143 1
110 144 1
127 144 1
144 144 1
111 145 1
128 145 1
145 145 1
112 146 1
129 146 1
146 146 1
113 147 1
130 147 1
147 147 1
114 148 1
131 148 1
148 148 1
115 149 1
132 149 1
149 149 1
116 150 1
133 150 1
150 150 1
117 151 1
134 151 1
151 151 1
118 152 1
135 152 1
152 152 1
119 153 1
136 153 1
153 153 1
103 154 1
121 154 1
145 154 1
104 155 1
122 155 1
146 155 1
105 156 1
123 156 1
147 156 1
106 157 1
124 157 1
148 157 1
107 158 1
125 158 1
149 158 1
108 159 1
126 159 1
150 159 1
109 160 1
127 160 1
151 160 1
110 161 1
128 161 1
152 161 1
111 162 1
129 162 1
153 162 1
112 163 1
130 163 1
137 163 1
113 164 1
131 164 1
138 164 1
114 165 1
132 165 1
139 165 1
115 166 1
133 166 1
140 166 1
116 167 1
134 167 1
141 167 1
117 168 1
135 168 1
142 168 1
118 169 1
136 169 1
143 169 1
119 170 1
120 170 1
144 170 1
103 171 1
122 171 1
149 171 1
104 172 1
123 172 1
150 172 1
105 173 1
124 173 1
151 173 1
106 174 1
125 174 1
152 174 1
107 175 1
126 175 1
153 175 1
108 176 1
127 176 1
137 176 1
109 177 1
128 177 1
138 177 1
110 178 1
129 178 1
139 178 1
111 179 1
130 179 1
140 179 1
112 180 1
131 180 1
141 180 1
113 181 1
132 181 1
142 181 1
114 182 1
133 182 1
143 182 1
115 183 1
134 183 1
144 183 1
116 184 1
135 184 1
145 184 1
117 185 1
136 185 1
146 185 1
118 186 1
120 186 1
147 186 1
119 187 1
121 187 1
148 187 1
103 188 1
131 188 1
150 188 1
104 189 1
132 189 1
151 189 1
105 190 1
133 190 1
152 190 1
106 191 1
134 191 1
153 191 1
107 192 1
135 192 1
137 192 1
108 193 1
136 193 1
138 193 1
109 194 1
120 194 1
139 194 1
110 195 1
121 195 1
140 195 1
111 196 1
122 196 1
141 196 1
112 197 1
123 197 1
142 197 1
113 198 1
124 198 1
143 198 1
114 199 1
125 199 1
144 199 1
115 200 1
126 200 1
145 200 1
116 201 1
127 201 1
146 201 1
117 202 1
128 202 1
147 202 1
118 203 1
129 203 1
148 203 1
119 204 1
130 204 1
149 204 1
154 205 1
171 205 1
188 205 1
155 206 1
172 206 1
189 206 1
156 207 1
173 207 1
190 207 1
157 208 1
174 208 1
191 208 1
158 209 1
175 209 1
192 209 1
159 210 1
176 210 1
193 210 1
160 211 1
177 211 1
194 211 1
161 212 1
178 212 1
195 212 1
162 213 1
179 213 1
196 213 1
163 214 1
180 214 1
197 214 1
164 215 1
181 215 1
198 215 1
165 216 1
182 216 1
199 216 1
166 217 1
183 217 1
200 217 1
167 218 1
184 218 1
201 218 1
168 219 1
185 219 1
202 219 1
169 220 1
186 220 1
203 220 1
170 221 1
187 221 1
204 221 1
154 222 1
172 222 1
196 222 1
155 223 1
173 223 1
197 223 1
156 224 1
174 224 1
198 224 1
157 225 1
175 225 1
199 225 1
158 226 1
176 226 1
200 226 1
159 227 1
177 227 1
201 227 1
160 228 1
178 228 1
202 228 1
161 229 1
179 229 1
203 229 1
162 230 1
180 230 1
204 230 1
163 231 1
181 231 1
188 231 1
164 232 1
182 232 1
189 232 1
165 233 1
183 233 1
190 233 1
166 234 1
184 234 1
191 234 1
167 235 1
185 235 1
192 235 1
168 236 1
186 236 1
193 236 1
169 237 1
187 237 1
194 237 1
170 238 1
171 238 1
195 238 1
154 239 1
173 239 1
200 239 1
155 240 1
174 240 1
201 240 1
156 241 1
175 241 1
202 241 1
157 242 1
176 242 1
203 242 1
158 243 1
177 243 1
204 243 1
159 244 1
178 244 1
188 244 1
160 245 1
179 245 1
189 245 1
161 246 1
180 246 1
190 246 1
162 247 1
181 247 1
191 247 1
163 248 1
182 248 1
192 248 1
164 249 1
183 249 1
193 249 1
165 250 1
184 250 1
194 250 1
166 251 1
185 251 1
195 251 1
167 252 1
186 252 1
196 252 1
168 253 1
187 253 1
197 253 1
169 254 1
171 254 1
198 254 1
170 255 1
172 255 1
199 255 1
154 256 1
182 256 1
201 256 1
155 257 1
183 257 1
202 257 1
156 258 1
184 258 1
203 258 1
157 259 1
185 259 1
204 259 1
158 260 1
186 260 1
188 260 1
159 261 1
187 261 1
189 261 1
160 262 1
171 262 1
190 262 1
161 263 1
172 263 1
191 263 1
162 264 1
173 264 1
192 264 1
163 265 1
174 265 1
193 265 1
164 266 1
175 266 1
194 266 1
165 267 1
176 267 1
195 267 1
166 268 1
177 268 1
196 268 1
167 269 1
178 269 1
197 269 1
168 270 1
179 270 1
198 270 1
169 271 1
180 271 1
199 271 1
170 272 1
181 272 1
200 272 1
1 273 1
52 273 1
103 273 1
154 273 1
2 274 1
53 274 1
104 274 1
155 274 1
3 275 1
54 275 1
105 275 1
156 275 1
4 276 1
55 276 1
106 276 1
157 276 1
5 277 1
56 277 1
107 277 1
158 277 1
6 278 1
57 278 1
108 278 1
159 278 1
7 279 1
58 279 1
109 279 1
160 279 1
8 280 1
59 280 1
110 280 1
161 280 1
9 281 1
60 281 1
111 281 1
162 281 1
10 282 1
61 282 1
112 282 1
163 282 1
11 283 1
62 283 1
113 283 1
164 283 1
12 284 1
63 284 1
114 284 1
165 284 1
13 285 1
64 285 1
115 285 1
166 285 1
14 286 1
65 286 1
116 286 1
167 286 1
15 287 1
66 287 1
117 287 1
168 287 1
16 288 1
67 288 1
118 288 1
169 288 1
17 289 1
68 289 1
119 289 1
170 289 1
18 290 1
69 290 1
120 290 1
171 290 1
19 291 1
70 291 1
121 291 1
172 291 1
20 292 1
71 292 1
122 292 1
173 292 1
21 293 1
72 293 1
123 293 1
174 293 1
22 294 1
73 294 1
124 294 1
175 294 1
23 295 1
74 295 1
125 295 1
176 295 1
24 296 1
75 296 1
126 296 1
177 296 1
25 297 1
76 297 1
127 297 1
178 297 1
26 298 1
77 298 1
128 298 1
179 298 1
27 299 1
78 299 1
129 299 1
180 299 1
28 300 1
79 300 1
130 300 1
181 300 1
29 301 1
80 301 1
131 301 1
182 301 1
30 302 1
81 302 1
132 302 1
183 302 1
31 303 1
82 303 1
133 303 1
184 303 1
32 304 1
83 304 1
134 304 1
185 304 1
33 305 1
84 305 1
135 305 1
186 305 1
34 306 1
85 306 1
136 306 1
187 306 1
35 307 1
86 307 1
137 307 1
188 307 1
36 308 1
87 308 1
138 308 1
189 308 1
37 309 1
88 309 1
139 309 1
190 309 1
38 310 1
89 310 1
140 310 1
191 310 1
39 311 1
90 311 1
141 311 1
192 311 1
40 312 1
91 312 1
142 312 1
193 312 1
41 313 1
92 313 1
143 313 1
194 313 1
42 314 1
93 314 1
144 314 1
195 314 1
43 315 1
94 315 1
145 315 1
196 315 1
44 316 1
95 316 1
146 316 1
197 316 1
45 317 1
96 317 1
147 317 1
198 317 1
46 318 1
97 318 1
148 318 1
199 318 1
47 319 1
98 319 1
149 319 1
200 319 1
48 320 1
99 320 1
150 320 1
201 320 1
49 321 1
100 321 1
151 321 1
202 321 1
50 322 1
101 322 1
152 322 1
203 322 1
51 323 1
102 323 1
153 323 1
204 323 1
1 324 1
68 324 1
118 324 1
160 324 1
2 325 1
52 325 1
119 325 1
161 325 1
3 326 1
53 326 1
103 326 1
162 326 1
4 327 1
54 327 1
104 327 1
163 327 1
5 328 1
55 328 1
105 328 1
164 328 1
6 329 1
56 329 1
106 329 1
165 329 1
7 330 1
57 330 1
107 330 1
166 330 1
8 331 1
58 331 1
108 331 1
167 331 1
9 332 1
59 332 1
109 332 1
168 332 1
10 333 1
60 333 1
110 333 1
169 333 1
11 334 1
61 334 1
111 334 1
170 334 1
12 335 1
62 335 1
112 335 1
154 335 1
13 336 1
63 336 1
113 336 1
155 336 1
14 337 1
64 337 1
114 337 1
156 337 1
15 338 1
65 338 1
115 338 1
157 338 1
16 339 1
66 339 1
116 339 1
158 339 1
17 340 1
67 340 1
117 340 1
159 340 1
18 341 1
85 341 1
135 341 1
177 341 1
19 342 1
69 342 1
136 342 1
178 342 1
20 343 1
70 343 1
120 343 1
179 343 1
21 344 1
71 344 1
121 344 1
180 344 1
22 345 1
72 345 1
122 345 1
181 345 1
23 346 1
73 346 1
123 346 1
182 346 1
24 347 1
74 347 1
124 347 1
183 347 1
25 348 1
75 348 1
125 348 1
184 348 1
26 349 1
76 349 1
126 349 1
185 349 1
27 350 1
77 350 1
127 350 1
186 350 1
28 351 1
78 351 1
128 351 1
187 351 1
29 352 1
79 352 1
129 352 1
171 352 1
30 353 1
80 353 1
130 353 1
172 353 1
31 354 1
81 354 1
131 354 1
173 354 1
32 355 1
82 355 1
132 355 1
174 355 1
33 356 1
83 356 1
133 356 1
175 356 1
34 357 1
84 357 1
134 357 1
176 357 1
35 358 1
102 358 1
152 358 1
194 358 1
36 359 1
86 359 1
153 359 1
195 359 1
37 360 1
87 360 1
137 360 1
196 360 1
38 361 1
88 361 1
138 361 1
197 361 1
39 362 1
89 362 1
139 362 1
198 362 1
40 363 1
90 363 1
140 363 1
199 363 1
41 364 1
91 364 1
141 364 1
200 364 1
42 365 1
92 365 1
142 365 1
201 365 1
43 366 1
93 366 1
143 366 1
202 366 1
44 367 1
94 367 1
144 367 1
203 367 1
45 368 1
95 368 1
145 368 1
204 368 1
46 369 1
96 369 1
146 369 1
188 369 1
47 370 1
97 370 1
147 370 1
189 370 1
48 371 1
98 371 1
148 371 1
190 371 1
49 372 1
99 372 1
149 372 1
191 372 1
50 373 1
100 373 1
150 373 1
192 373 1
51 374 1
101 374 1
151 374 1
193 374 1
1 375 1
61 375 1
108 375 1
158 375 1
2 376 1
62 376 1
109 376 1
159 376 1
3 377 1
63 377 1
110 377 1
160 377 1
4 378 1
64 378 1
111 378 1
161 378 1
5 379 1
65 379 1
112 379 1
162 379 1
6 380 1
66 380 1
113 380 1
163 380 1
7 381 1
67 381 1
114 381 1
164 381 1
8 382 1
68 382 1
115 382 1
165 382 1
9 383 1
52 383 1
116 383 1
166 383 1
10 384 1
53 384 1
117 384 1
167 384 1
11 385 1
54 385 1
118 385 1
168 385 1
12 386 1
55 386 1
119 386 1
169 386 1
13 387 1
56 387 1
103 387 1
170 387 1
14 388 1
57 388 1
104 388 1
154 388 1
15 389 1
58 389 1
105 389 1
155 389 1
16 390 1
59 390 1
106 390 1
156 390 1
17 391 1
60 391 1
107 391 1
157 391 1
18 392 1
78 392 1
125 392 1
175 392 1
19 393 1
79 393 1
126 393 1
176 393 1
20 394 1
80 394 1
127 394 1
177 394 1
21 395 1
81 395 1
128 395 1
178 395 1
22 396 1
82 396 1
129 396 1
179 396 1
23 397 1
83 397 1
130 397 1
180 397 1
24 398 1
84 398 1
131 398 1
181 398 1
25 399 1
85 399 1
132 399 1
182 399 1
26 400 1
69 400 1
133 400 1
183 400 1
27 401 1
70 401 1
134 401 1
184 401 1
28 402 1
71 402 1
135 402 1
185 402 1
29 403 1
72 403 1
136 403 1
186 403 1
30 404 1
73 404 1
120 404 1
187 404 1
31 405 1
74 405 1
121 405 1
171 405 1
32 406 1
75 406 1
122 406 1
172 406 1
33 407 1
76 407 1
123 407 1
173 407 1
34 408 1
77 408 1
124 408 1
174 408 1
35 409 1
95 409 1
142 409 1
192 409 1
36 410 1
96 410 1
143 410 1
193 410 1
37 411 1
97 411 1
144 411 1
194 411 1
38 412 1
98 412 1
145 412 1
195 412 1
39 413 1
99 413 1
146 413 1
196 413 1
40 414 1
100 414 1
147 414 1
197 414 1
41 415 1
101 415 1
148 415 1
198 415 1
42 416 1
102 416 1
149 416 1
199 416 1
43 417 1
86 417 1
150 417 1
200 417 1
44 418 1
87 418 1
151 418 1
201 418 1
45 419 1
88 419 1
152 419 1
202 419 1
46 420 1
89 420 1
153 420 1
203 420 1
47 421 1
90 421 1
137 421 1
204 421 1
48 422 1
91 422 1
138 422 1
188 422 1
49 423 1
92 423 1
139 423 1
189 423 1
50 424 1
93 424 1
140 424 1
190 424 1
51 425 1
94 425 1
141 425 1
191 425 1
