%%MatrixMarket matrix coordinate integer general
84 175 588
1 1 1
29 1 1
57 1 1
2 2 1
30 2 1
58 2 1
3 3 1
31 3 1
59 3 1
4 4 1
32 4 1
60 4 1
5 5 1
33 5 1
61 5 1
6 6 1
34 6 1
62 6 1
7 7 1
35 7 1
63 7 1
8 8 1
36 8 1
64 8 1
9 9 1
37 9 1
65 9 1
10 10 1
38 10 1
66 10 1
11 11 1
39 11 1
67 11 1
12 12 1
40 12 1
68 12 1
13 13 1
41 13 1
69 13 1
14 14 1
42 14 1
70 14 1
15 15 1
43 15 1
71 15 1
16 16 1
44 16 1
72 16 1
17 17 1
45 17 1
73 17 1
18 18 1
46 18 1
74 18 1
19 19 1
47 19 1
75 19 1
20 20 1
48 20 1
76 20 1
21 21 1
49 21 1
77 21 1
22 22 1
50 22 1
78 22 1
23 23 1
51 23 1
79 23 1
24 24 1
52 24 1
80 24 1
25 25 1
53 25 1
81 25 1
26 26 1
54 26 1
82 26 1
27 27 1
55 27 1
83 27 1
28 28 1
56 28 1
84 28 1
1 29 1
30 29 1
63 29 1
2 30 1
31 30 1
57 30 1
3 31 1
32 31 1
58 31 1
4 32 1
33 32 1
59 32 1
5 33 1
34 33 1
60 33 1
6 34 1
35 34 1
61 34 1
7 35 1
29 35 1
62 35 1
8 36 1
37 36 1
70 36 1
9 37 1
38 37 1
64 37 1
10 38 1
39 38 1
65 38 1
11 39 1
40 39 1
66 39 1
12 40 1
41 40 1
67 40 1
13 41 1
42 41 1
68 41 1
14 42 1
36 42 1
69 42 1
15 43 1
44 43 1
77 43 1
16 44 1
45 44 1
71 44 1
17 45 1
46 45 1
72 45 1
18 46 1
47 46 1
73 46 1
19 47 1
48 47 1
74 47 1
20 48 1
49 48 1
75 48 1
21 49 1
43 49 1
76 49 1
22 50 1
51 50 1
84 50 1
23 51 1
52 51 1
78 51 1
24 52 1
53 52 1
79 52 1
25 53 1
54 53 1
80 53 1
26 54 1
55 54 1
81 54 1
27 55 1
56 55 1
82 55 1
28 56 1
50 56 1
83 56 1
1 57 1
31 57 1
60 57 1
2 58 1
32 58 1
61 58 1
3 59 1
33 59 1
62 59 1
4 60 1
34 60 1
63 60 1
5 61 1
35 61 1
57 61 1
6 62 1
29 62 1
58 62 1
7 63 1
30 63 1
59 63 1
8 64 1
38 64 1
67 64 1
9 65 1
39 65 1
68 65 1
10 66 1
40 66 1
69 66 1
11 67 1
41 67 1
70 67 1
12 68 1
42 68 1
64 68 1
13 69 1
36 69 1
65 69 1
14 70 1
37 70 1
66 70 1
15 71 1
45 71 1
74 71 1
16 72 1
46 72 1
75 72 1
17 73 1
47 73 1
76 73 1
18 74 1
48 74 1
77 74 1
19 75 1
49 75 1
71 75 1
20 76 1
43 76 1
72 76 1
21 77 1
44 77 1
73 77 1
22 78 1
52 78 1
81 78 1
23 79 1
53 79 1
82 79 1
24 80 1
54 80 1
83 80 1
25 81 1
55 81 1
84 81 1
26 82 1
56 82 1
78 82 1
27 83 1
50 83 1
79 83 1
28 84 1
51 84 1
80 84 1
1 85 1
34 85 1
58 85 1
2 86 1
35 86 1
59 86 1
3 87 1
29 87 1
60 87 1
4 88 1
30 88 1
61 88 1
5 89 1
31 89 1
62 89 1
6 90 1
32 90 1
63 90 1
7 91 1
33 91 1
57 91 1
8 92 1
41 92 1
65 92 1
9 93 1
42 93 1
66 93 1
10 94 1
36 94 1
67 94 1
11 95 1
37 95 1
68 95 1
12 96 1
38 96 1
69 96 1
13 97 1
39 97 1
70 97 1
14 98 1
40 98 1
64 98 1
15 99 1
48 99 1
72 99 1
16 100 1
49 100 1
73 100 1
17 101 1
43 101 1
74 101 1
18 102 1
44 102 1
75 102 1
19 103 1
45 103 1
76 103 1
20 104 1
46 104 1
77 104 1
21 105 1
47 105 1
71 105 1
22 106 1
55 106 1
79 106 1
23 107 1
56 107 1
80 107 1
24 108 1
50 108 1
81 108 1
25 109 1
51 109 1
82 109 1
26 110 1
52 110 1
83 110 1
27 111 1
53 111 1
84 111 1
28 112 1
54 112 1
78 112 1
1 113 1
8 113 1
15 113 1
22 113 1
2 114 1
9 114 1
16 114 1
23 114 1
3 115 1
10 115 1
17 115 1
24 115 1
4 116 1
11 116 1
18 116 1
25 116 1
5 117 1
12 117 1
19 117 1
26 117 1
6 118 1
13 118 1
20 118 1
27 118 1
7 119 1
14 119 1
21 119 1
28 119 1
1 120 1
14 120 1
20 120 1
24 120 1
2 121 1
8 121 1
21 121 1
25 121 1
3 122 1
9 122 1
15 122 1
26 122 1
4 123 1
10 123 1
16 123 1
27 123 1
5 124 1
11 124 1
17 124 1
28 124 1
6 125 1
12 125 1
18 125 1
22 125 1
7 126 1
13 126 1
19 126 1
23 126 1
1 127 1
9 127 1
19 127 1
28 127 1
2 128 1
10 128 1
20 128 1
22 128 1
3 129 1
11 129 1
21 129 1
23 129 1
4 130 1
12 130 1
15 130 1
24 130 1
5 131 1
13 131 1
16 131 1
25 131 1
6 132 1
14 132 1
17 132 1
26 132 1
7 133 1
8 133 1
18 133 1
27 133 1
29 134 1
36 134 1
43 134 1
50 134 1
30 135 1
37 135 1
44 135 1
51 135 1
31 136 1
38 136 1
45 136 1
52 136 1
32 137 1
39 137 1
46 137 1
53 137 1
33 138 1
40 138 1
47 138 1
54 138 1
34 139 1
41 139 1
48 139 1
55 139 1
35 140 1
42 140 1
49 140 1
56 140 1
29 141 1
42 141 1
48 141 1
52 141 1
30 142 1
36 142 1
49 142 1
53 142 1
31 143 1
37 143 1
43 143 1
54 143 1
32 144 1
38 144 1
44 144 1
55 144 1
33 145 1
39 145 1
45 145 1
56 145 1
34 146 1
40 146 1
46 146 1
50 146 1
35 147 1
41 147 1
47 147 1
51 147 1
29 148 1
37 148 1
47 148 1
56 148 1
30 149 1
38 149 1
48 149 1
50 149 1
31 150 1
39 150 1
49 150 1
51 150 1
32 151 1
40 151 1
43 151 1
52 151 1
33 152 1
41 152 1
44 152 1
53 152 1
34 153 1
42 153 1
45 153 1
54 153 1
35 154 1
36 154 1
46 154 1
55 154 1
57 155 1
64 155 1
71 155 1
78 155 1
58 156 1
65 156 1
72 156 1
79 156 1
59 157 1
66 157 1
73 157 1
80 157 1
60 158 1
67 158 1
74 158 1
81 158 1
61 159 1
68 159 1
75 159 1
82 159 1
62 160 1
69 160 1
76 160 1
83 160 1
63 161 1
70 161 1
77 161 1
84 161 1
57 162 1
70 162 1
76 162 1
80 162 1
58 163 1
64 163 1
77 163 1
81 163 1
59 164 1
65 164 1
71 164 1
82 164 1
60 165 1
66 165 1
72 165 1
83 165 1
61 166 1
67 166 1
73 166 1
84 166 1
62 167 1
68 167 1
74 167 1
78 167 1
63 168 1
69 168 1
75 168 1
79 168 1
57 169 1
65 169 1
75 169 1
84 169 1
58 170 1
66 170 1
76 170 1
78 170 1
59 171 1
67 171 1
77 171 1
79 171 1
60 172 1
68 172 1
71 172 1
80 172 1
61 173 1
69 173 1
72 173 1
81 173 1
62 174 1
70 174 1
73 174 1
82 174 1
63 175 1
64 175 1
74 175 1
83 175 1
