%%MatrixMarket matrix coordinate integer general
84 175 588
1 1 1
8 1 1
15 1 1
2 2 1
9 2 1
16 2 1
3 3 1
10 3 1
17 3 1
4 4 1
11 4 1
18 4 1
5 5 1
12 5 1
19 5 1
6 6 1
13 6 1
20 6 1
7 7 1
14 7 1
21 7 1
1 8 1
9 8 1
21 8 1
2 9 1
10 9 1
15 9 1
3 10 1
11 10 1
16 10 1
4 11 1
12 11 1
17 11 1
5 12 1
13 12 1
18 12 1
6 13 1
14 13 1
19 13 1
7 14 1
8 14 1
20 14 1
1 15 1
10 15 1
18 15 1
2 16 1
11 16 1
19 16 1
3 17 1
12 17 1
20 17 1
4 18 1
13 18 1
21 18 1
5 19 1
14 19 1
15 19 1
6 20 1
8 20 1
16 20 1
7 21 1
9 21 1
17 21 1
1 22 1
13 22 1
16 22 1
2 23 1
14 23 1
17 23 1
3 24 1
8 24 1
18 24 1
4 25 1
9 25 1
19 25 1
5 26 1
10 26 1
20 26 1
6 27 1
11 27 1
21 27 1
7 28 1
12 28 1
15 28 1
22 29 1
29 29 1
36 29 1
23 30 1
30 30 1
37 30 1
24 31 1
31 31 1
38 31 1
25 32 1
32 32 1
39 32 1
26 33 1
33 33 1
40 33 1
27 34 1
34 34 1
41 34 1
28 35 1
35 35 1
42 35 1
22 36 1
30 36 1
42 36 1
23 37 1
31 37 1
36 37 1
24 38 1
32 38 1
37 38 1
25 39 1
33 39 1
38 39 1
26 40 1
34 40 1
39 40 1
27 41 1
35 41 1
40 41 1
28 42 1
29 42 1
41 42 1
22 43 1
31 43 1
39 43 1
23 44 1
32 44 1
40 44 1
24 45 1
33 45 1
41 45 1
25 46 1
34 46 1
42 46 1
26 47 1
35 47 1
36 47 1
27 48 1
29 48 1
37 48 1
28 49 1
30 49 1
38 49 1
22 50 1
34 50 1
37 50 1
23 51 1
35 51 1
38 51 1
24 52 1
29 52 1
39 52 1
25 53 1
30 53 1
40 53 1
26 54 1
31 54 1
41 54 1
27 55 1
32 55 1
42 55 1
28 56 1
33 56 1
36 56 1
43 57 1
50 57 1
57 57 1
44 58 1
51 58 1
58 58 1
45 59 1
52 59 1
59 59 1
46 60 1
53 60 1
60 60 1
47 61 1
54 61 1
61 61 1
48 62 1
55 62 1
62 62 1
49 63 1
56 63 1
63 63 1
43 64 1
51 64 1
63 64 1
44 65 1
52 65 1
57 65 1
45 66 1
53 66 1
58 66 1
46 67 1
54 67 1
59 67 1
47 68 1
55 68 1
60 68 1
48 69 1
56 69 1
61 69 1
49 70 1
50 70 1
62 70 1
43 71 1
52 71 1
60 71 1
44 72 1
53 72 1
61 72 1
45 73 1
54 73 1
62 73 1
46 74 1
55 74 1
63 74 1
47 75 1
56 75 1
57 75 1
48 76 1
50 76 1
58 76 1
49 77 1
51 77 1
59 77 1
43 78 1
55 78 1
58 78 1
44 79 1
56 79 1
59 79 1
45 80 1
50 80 1
60 80 1
46 81 1
51 81 1
61 81 1
47 82 1
52 82 1
62 82 1
48 83 1
53 83 1
63 83 1
49 84 1
54 84 1
57 84 1
64 85 1
71 85 1
78 85 1
65 86 1
72 86 1
79 86 1
66 87 1
73 87 1
80 87 1
67 88 1
74 88 1
81 88 1
68 89 1
75 89 1
82 89 1
69 90 1
76 90 1
83 90 1
70 91 1
77 91 1
84 91 1
64 92 1
72 92 1
84 92 1
65 93 1
73 93 1
78 93 1
66 94 1
74 94 1
79 94 1
67 95 1
75 95 1
80 95 1
68 96 1
76 96 1
81 96 1
69 97 1
77 97 1
82 97 1
70 98 1
71 98 1
83 98 1
64 99 1
73 99 1
81 99 1
65 100 1
74 100 1
82 100 1
66 101 1
75 101 1
83 101 1
67 102 1
76 102 1
84 102 1
68 103 1
77 103 1
78 103 1
69 104 1
71 104 1
79 104 1
70 105 1
72 105 1
80 105 1
64 106 1
76 106 1
79 106 1
65 107 1
77 107 1
80 107 1
66 108 1
71 108 1
81 108 1
67 109 1
72 109 1
82 109 1
68 110 1
73 110 1
83 110 1
69 111 1
74 111 1
84 111 1
70 112 1
75 112 1
78 112 1
1 113 1
22 113 1
43 113 1
64 113 1
2 114 1
23 114 1
44 114 1
65 114 1
3 115 1
24 115 1
45 115 1
66 115 1
4 116 1
25 116 1
46 116 1
67 116 1
5 117 1
26 117 1
47 117 1
68 117 1
6 118 1
27 118 1
48 118 1
69 118 1
7 119 1
28 119 1
49 119 1
70 119 1
8 120 1
29 120 1
50 120 1
71 120 1
9 121 1
30 121 1
51 121 1
72 121 1
10 122 1
31 122 1
52 122 1
73 122 1
11 123 1
32 123 1
53 123 1
74 123 1
12 124 1
33 124 1
54 124 1
75 124 1
13 125 1
34 125 1
55 125 1
76 125 1
14 126 1
35 126 1
56 126 1
77 126 1
15 127 1
36 127 1
57 127 1
78 127 1
16 128 1
37 128 1
58 128 1
79 128 1
17 129 1
38 129 1
59 129 1
80 129 1
18 130 1
39 130 1
60 130 1
81 130 1
19 131 1
40 131 1
61 131 1
82 131 1
20 132 1
41 132 1
62 132 1
83 132 1
21 133 1
42 133 1
63 133 1
84 133 1
1 134 1
28 134 1
48 134 1
66 134 1
2 135 1
22 135 1
49 135 1
67 135 1
3 136 1
23 136 1
43 136 1
68 136 1
4 137 1
24 137 1
44 137 1
69 137 1
5 138 1
25 138 1
45 138 1
70 138 1
6 139 1
26 139 1
46 139 1
64 139 1
7 140 1
27 140 1
47 140 1
65 140 1
8 141 1
35 141 1
55 141 1
73 141 1
9 142 1
29 142 1
56 142 1
74 142 1
10 143 1
30 143 1
50 143 1
75 143 1
11 144 1
31 144 1
51 144 1
76 144 1
12 145 1
32 145 1
52 145 1
77 145 1
13 146 1
33 146 1
53 146 1
71 146 1
14 147 1
34 147 1
54 147 1
72 147 1
15 148 1
42 148 1
62 148 1
80 148 1
16 149 1
36 149 1
63 149 1
81 149 1
17 150 1
37 150 1
57 150 1
82 150 1
18 151 1
38 151 1
58 151 1
83 151 1
19 152 1
39 152 1
59 152 1
84 152 1
20 153 1
40 153 1
60 153 1
78 153 1
21 154 1
41 154 1
61 154 1
79 154 1
1 155 1
23 155 1
47 155 1
70 155 1
2 156 1
24 156 1
48 156 1
64 156 1
3 157 1
25 157 1
49 157 1
65 157 1
4 158 1
26 158 1
43 158 1
66 158 1
5 159 1
27 159 1
44 159 1
67 159 1
6 160 1
28 160 1
45 160 1
68 160 1
7 161 1
22 161 1
46 161 1
69 161 1
8 162 1
30 162 1
54 162 1
77 162 1
9 163 1
31 163 1
55 163 1
71 163 1
10 164 1
32 164 1
56 164 1
72 164 1
11 165 1
33 165 1
50 165 1
73 165 1
12 166 1
34 166 1
51 166 1
74 166 1
13 167 1
35 167 1
52 167 1
75 167 1
14 168 1
29 168 1
53 168 1
76 168 1
15 169 1
37 169 1
61 169 1
84 169 1
16 170 1
38 170 1
62 170 1
78 170 1
17 171 1
39 171 1
63 171 1
79 171 1
18 172 1
40 172 1
57 172 1
80 172 1
19 173 1
41 173 1
58 173 1
81 173 1
20 174 1
42 174 1
59 174 1
82 174 1
21 175 1
36 175 1
60 175 1
83 175 1
