%%MatrixMarket matrix coordinate integer general
29 425 1026
1 85 1
5 86 1
3 87 1
4 88 1
3 89 1
5 89 1
8 89 1
8 90 1
1 91 1
4 91 1
5 91 1
8 91 1
1 92 1
3 92 1
5 92 1
8 92 1
1 93 1
3 93 1
3 94 1
8 94 1
10 94 1
10 95 1
3 96 1
1 97 1
3 97 1
8 98 1
3 99 1
4 99 1
5 99 1
8 99 1
10 99 1
1 100 1
4 100 1
3 101 1
4 101 1
5 101 1
4 102 1
8 102 1
10 102 1
2 103 1
5 103 1
8 103 1
10 103 1
1 104 1
2 104 1
3 104 1
5 104 1
8 104 1
2 105 1
3 105 1
1 106 1
2 106 1
4 106 1
2 107 1
4 107 1
5 107 1
10 107 1
2 108 1
4 108 1
5 108 1
8 108 1
1 109 1
2 109 1
3 109 1
1 110 1
2 110 1
3 110 1
5 110 1
8 110 1
2 111 1
5 111 1
2 112 1
4 112 1
2 113 1
3 113 1
5 113 1
8 113 1
2 114 1
3 114 1
4 114 1
8 114 1
1 115 1
2 115 1
10 115 1
1 116 1
2 116 1
5 116 1
8 116 1
10 116 1
1 117 1
2 117 1
4 117 1
2 118 1
4 118 1
2 119 1
8 119 1
2 120 1
3 120 1
4 120 1
1 121 1
2 121 1
5 121 1
8 121 1
2 122 1
3 122 1
4 122 1
1 123 1
2 123 1
3 123 1
4 123 1
5 123 1
8 123 1
2 124 1
4 124 1
5 124 1
8 124 1
10 124 1
1 125 1
2 125 1
2 126 1
5 126 1
8 126 1
2 127 1
5 127 1
8 127 1
2 128 1
3 128 1
5 128 1
8 128 1
10 128 1
1 129 1
2 129 1
3 129 1
4 129 1
5 129 1
8 129 1
2 130 1
5 130 1
8 130 1
1 131 1
2 131 1
4 131 1
8 131 1
1 132 1
2 132 1
8 132 1
10 132 1
1 133 1
2 133 1
3 133 1
4 133 1
2 134 1
2 135 1
3 135 1
5 135 1
2 136 1
5 136 1
10 136 1
6 137 1
12 138 1
11 139 1
9 140 1
7 141 1
13 142 1
16 143 1
15 144 1
14 145 1
19 146 1
18 147 1
21 148 1
17 149 1
20 150 1
23 151 1
25 152 1
1 153 1
4 153 1
5 153 1
6 153 1
12 153 1
14 153 1
15 153 1
16 153 1
19 153 1
20 153 1
22 153 1
26 153 1
26 154 1
22 155 1
5 156 1
6 156 1
8 156 1
11 156 1
12 156 1
14 156 1
15 156 1
18 156 1
19 156 1
22 156 1
23 156 1
1 157 1
4 157 1
6 157 1
8 157 1
9 157 1
15 157 1
21 157 1
22 157 1
23 157 1
25 157 1
1 158 1
4 158 1
7 158 1
10 158 1
11 158 1
12 158 1
14 158 1
16 158 1
17 158 1
18 158 1
20 158 1
23 158 1
25 158 1
26 158 1
3 159 1
4 159 1
6 159 1
8 159 1
9 159 1
10 159 1
11 159 1
12 159 1
13 159 1
14 159 1
16 159 1
21 159 1
23 159 1
25 159 1
26 159 1
1 160 1
3 160 1
5 160 1
6 160 1
7 160 1
9 160 1
11 160 1
14 160 1
17 160 1
20 160 1
25 160 1
26 160 1
6 161 1
7 161 1
9 161 1
13 161 1
14 161 1
15 161 1
16 161 1
23 161 1
26 161 1
1 162 1
4 162 1
7 162 1
8 162 1
12 162 1
13 162 1
14 162 1
15 162 1
16 162 1
19 162 1
22 162 1
25 162 1
8 163 1
10 163 1
13 163 1
14 163 1
15 163 1
19 163 1
20 163 1
23 163 1
26 163 1
3 164 1
4 164 1
5 164 1
8 164 1
14 164 1
16 164 1
18 164 1
19 164 1
22 164 1
23 164 1
25 164 1
11 165 1
15 165 1
16 165 1
19 165 1
20 165 1
21 165 1
23 165 1
25 165 1
26 165 1
3 166 1
4 166 1
6 166 1
9 166 1
12 166 1
16 166 1
17 166 1
18 166 1
19 166 1
20 166 1
23 166 1
25 166 1
26 166 1
5 167 1
6 167 1
7 167 1
10 167 1
11 167 1
14 167 1
16 167 1
18 167 1
19 167 1
21 167 1
23 167 1
25 167 1
26 167 1
5 168 1
6 168 1
8 168 1
9 168 1
13 168 1
14 168 1
16 168 1
17 168 1
18 168 1
20 168 1
21 168 1
25 168 1
26 168 1
1 169 1
3 169 1
5 169 1
6 169 1
7 169 1
14 169 1
17 169 1
21 169 1
23 169 1
26 169 1
1 170 1
3 170 1
5 170 1
8 170 1
10 170 1
12 170 1
13 170 1
17 170 1
19 170 1
20 170 1
22 170 1
25 170 1
27 171 1
9 172 1
11 172 1
12 172 1
13 172 1
14 172 1
16 172 1
20 172 1
21 172 1
23 172 1
25 172 1
27 172 1
1 173 1
3 173 1
5 173 1
6 173 1
7 173 1
13 173 1
16 173 1
17 173 1
21 173 1
22 173 1
26 173 1
27 173 1
1 174 1
3 174 1
6 174 1
8 174 1
9 174 1
12 174 1
17 174 1
18 174 1
19 174 1
21 174 1
25 174 1
27 174 1
3 175 1
4 175 1
5 175 1
6 175 1
7 175 1
8 175 1
9 175 1
12 175 1
13 175 1
15 175 1
17 175 1
18 175 1
19 175 1
20 175 1
22 175 1
23 175 1
25 175 1
26 175 1
27 175 1
1 176 1
3 176 1
5 176 1
7 176 1
9 176 1
11 176 1
16 176 1
20 176 1
22 176 1
23 176 1
26 176 1
27 176 1
5 177 1
6 177 1
7 177 1
8 177 1
16 177 1
18 177 1
19 177 1
20 177 1
21 177 1
23 177 1
27 177 1
1 178 1
3 178 1
8 178 1
9 178 1
11 178 1
14 178 1
15 178 1
16 178 1
17 178 1
18 178 1
20 178 1
27 178 1
1 179 1
4 179 1
7 179 1
8 179 1
11 179 1
12 179 1
13 179 1
15 179 1
16 179 1
19 179 1
25 179 1
27 179 1
5 180 1
6 180 1
10 180 1
14 180 1
16 180 1
18 180 1
19 180 1
21 180 1
22 180 1
23 180 1
25 180 1
26 180 1
27 180 1
9 181 1
13 181 1
14 181 1
15 181 1
17 181 1
19 181 1
22 181 1
26 181 1
27 181 1
1 182 1
4 182 1
6 182 1
7 182 1
8 182 1
9 182 1
13 182 1
14 182 1
15 182 1
21 182 1
25 182 1
27 182 1
3 183 1
4 183 1
5 183 1
6 183 1
7 183 1
9 183 1
10 183 1
11 183 1
12 183 1
14 183 1
15 183 1
16 183 1
17 183 1
21 183 1
22 183 1
23 183 1
25 183 1
26 183 1
27 183 1
5 184 1
7 184 1
10 184 1
11 184 1
15 184 1
17 184 1
18 184 1
19 184 1
20 184 1
21 184 1
22 184 1
26 184 1
27 184 1
6 185 1
14 185 1
15 185 1
16 185 1
17 185 1
19 185 1
23 185 1
25 185 1
27 185 1
6 186 1
9 186 1
11 186 1
12 186 1
13 186 1
14 186 1
18 186 1
20 186 1
21 186 1
22 186 1
23 186 1
26 186 1
27 186 1
1 187 1
3 187 1
6 187 1
7 187 1
8 187 1
11 187 1
12 187 1
13 187 1
15 187 1
17 187 1
18 187 1
20 187 1
23 187 1
27 187 1
3 188 1
4 188 1
6 188 1
8 188 1
10 188 1
26 188 1
27 188 1
9 189 1
11 189 1
13 189 1
14 189 1
16 189 1
20 189 1
21 189 1
22 189 1
23 189 1
25 189 1
27 189 1
1 190 1
3 190 1
7 190 1
8 190 1
12 190 1
13 190 1
14 190 1
15 190 1
16 190 1
17 190 1
18 190 1
19 190 1
21 190 1
23 190 1
26 190 1
27 190 1
3 191 1
4 191 1
9 191 1
12 191 1
15 191 1
17 191 1
18 191 1
19 191 1
22 191 1
23 191 1
27 191 1
1 192 1
3 192 1
5 192 1
6 192 1
7 192 1
8 192 1
9 192 1
10 192 1
11 192 1
13 192 1
14 192 1
15 192 1
16 192 1
19 192 1
22 192 1
27 192 1
3 193 1
4 193 1
6 193 1
7 193 1
12 193 1
14 193 1
20 193 1
21 193 1
22 193 1
25 193 1
27 193 1
1 194 1
3 194 1
8 194 1
9 194 1
11 194 1
14 194 1
17 194 1
18 194 1
19 194 1
21 194 1
23 194 1
25 194 1
26 194 1
27 194 1
1 195 1
3 195 1
6 195 1
7 195 1
8 195 1
11 195 1
13 195 1
15 195 1
17 195 1
18 195 1
20 195 1
23 195 1
26 195 1
27 195 1
11 196 1
22 196 1
27 196 1
5 197 1
6 197 1
8 197 1
13 197 1
15 197 1
16 197 1
18 197 1
19 197 1
20 197 1
21 197 1
22 197 1
25 197 1
27 197 1
3 198 1
4 198 1
5 198 1
8 198 1
9 198 1
13 198 1
15 198 1
16 198 1
17 198 1
23 198 1
25 198 1
26 198 1
27 198 1
1 199 1
4 199 1
6 199 1
7 199 1
8 199 1
9 199 1
11 199 1
13 199 1
14 199 1
16 199 1
19 199 1
20 199 1
21 199 1
23 199 1
26 199 1
27 199 1
5 200 1
7 200 1
10 200 1
11 200 1
14 200 1
15 200 1
17 200 1
18 200 1
19 200 1
20 200 1
21 200 1
22 200 1
27 200 1
6 201 1
14 201 1
15 201 1
16 201 1
17 201 1
22 201 1
23 201 1
25 201 1
27 201 1
5 202 1
8 202 1
9 202 1
13 202 1
15 202 1
18 202 1
19 202 1
20 202 1
21 202 1
26 202 1
27 202 1
3 203 1
4 203 1
7 203 1
9 203 1
11 203 1
12 203 1
13 203 1
17 203 1
18 203 1
20 203 1
22 203 1
25 203 1
27 203 1
1 204 1
4 204 1
7 204 1
10 204 1
11 204 1
12 204 1
14 204 1
16 204 1
18 204 1
20 204 1
23 204 1
25 204 1
26 204 1
27 204 1
24 205 1
1 206 1
4 206 1
8 206 1
28 206 1
3 207 1
4 207 1
5 207 1
10 207 1
28 207 1
28 208 1
28 209 1
3 210 1
4 210 1
5 210 1
10 210 1
24 210 1
1 211 1
3 211 1
5 211 1
24 211 1
3 212 1
4 212 1
28 212 1
1 213 1
3 213 1
10 213 1
28 213 1
24 214 1
3 215 1
4 215 1
24 215 1
5 216 1
10 216 1
28 216 1
5 217 1
8 217 1
24 217 1
1 218 1
4 218 1
10 218 1
24 218 1
3 219 1
4 219 1
5 219 1
8 219 1
24 219 1
5 220 1
8 220 1
28 220 1
1 221 1
3 221 1
5 221 1
28 221 1
1 222 1
4 222 1
5 222 1
8 222 1
10 222 1
29 222 1
5 223 1
8 223 1
29 223 1
1 224 1
4 224 1
5 224 1
29 224 1
29 225 1
3 226 1
4 226 1
5 226 1
10 226 1
24 226 1
28 226 1
29 226 1
1 227 1
4 227 1
8 227 1
29 227 1
1 228 1
4 228 1
5 228 1
8 228 1
10 228 1
24 228 1
28 228 1
29 228 1
5 229 1
8 229 1
29 229 1
3 230 1
4 230 1
5 230 1
8 230 1
24 230 1
28 230 1
29 230 1
1 231 1
3 231 1
5 231 1
8 231 1
10 231 1
29 231 1
3 232 1
4 232 1
5 232 1
10 232 1
29 232 1
8 233 1
10 233 1
29 233 1
1 234 1
4 234 1
5 234 1
8 234 1
10 234 1
24 234 1
28 234 1
29 234 1
1 235 1
3 235 1
5 235 1
8 235 1
10 235 1
24 235 1
28 235 1
29 235 1
3 236 1
4 236 1
29 236 1
1 237 1
3 237 1
8 237 1
24 237 1
28 237 1
29 237 1
1 238 1
3 238 1
10 238 1
29 238 1
3 239 1
4 239 1
8 239 1
10 239 1
28 239 1
29 239 1
1 240 1
4 240 1
5 240 1
28 240 1
29 240 1
1 241 1
3 241 1
10 241 1
28 241 1
29 241 1
28 242 1
29 242 1
1 243 1
4 243 1
8 243 1
24 243 1
29 243 1
1 244 1
3 244 1
5 244 1
8 244 1
10 244 1
24 244 1
29 244 1
1 245 1
3 245 1
5 245 1
8 245 1
10 245 1
28 245 1
29 245 1
3 246 1
4 246 1
5 246 1
8 246 1
28 246 1
29 246 1
1 247 1
4 247 1
5 247 1
8 247 1
10 247 1
24 247 1
29 247 1
1 248 1
3 248 1
5 248 1
8 248 1
10 248 1
24 248 1
29 248 1
5 249 1
10 249 1
24 249 1
29 249 1
5 250 1
8 250 1
28 250 1
29 250 1
1 251 1
4 251 1
10 251 1
28 251 1
29 251 1
3 252 1
4 252 1
5 252 1
8 252 1
28 252 1
29 252 1
5 253 1
8 253 1
24 253 1
29 253 1
1 254 1
3 254 1
5 254 1
24 254 1
29 254 1
5 255 1
10 255 1
28 255 1
29 255 1
1 256 1
4 256 1
5 256 1
8 256 1
10 256 1
24 256 1
28 256 1
3 273 1
4 273 1
8 273 1
10 273 1
5 290 1
10 290 1
1 324 1
4 324 1
5 324 1
1 341 1
3 341 1
5 341 1
1 375 1
3 375 1
5 375 1
8 375 1
10 375 1
1 392 1
3 392 1
10 392 1
