%%MatrixMarket matrix coordinate integer general
21 225 450
3 45 1
4 46 1
1 47 1
8 48 1
5 49 1
5 50 1
8 50 1
9 50 1
9 51 1
4 52 1
5 52 1
8 52 1
3 53 1
4 53 1
5 53 1
8 53 1
1 54 1
3 54 1
4 54 1
8 54 1
1 55 1
2 55 1
4 55 1
9 55 1
2 56 1
5 56 1
2 57 1
3 57 1
8 57 1
2 58 1
4 58 1
5 58 1
9 58 1
2 59 1
9 59 1
1 60 1
2 60 1
5 60 1
8 60 1
2 61 1
3 61 1
5 61 1
2 62 1
3 62 1
4 62 1
5 62 1
8 62 1
2 63 1
3 63 1
4 63 1
2 64 1
4 64 1
8 64 1
1 65 1
2 65 1
5 65 1
2 66 1
3 66 1
2 67 1
4 67 1
9 67 1
2 68 1
5 68 1
8 68 1
2 69 1
3 69 1
5 69 1
8 69 1
2 70 1
3 70 1
4 70 1
8 70 1
2 71 1
1 72 1
2 72 1
4 72 1
7 73 1
6 74 1
15 75 1
14 76 1
13 77 1
11 78 1
10 79 1
16 80 1
17 81 1
12 82 1
1 83 1
5 83 1
6 83 1
7 83 1
8 83 1
9 83 1
10 83 1
11 83 1
12 83 1
13 83 1
14 83 1
15 83 1
17 83 1
1 84 1
5 84 1
8 84 1
9 84 1
12 84 1
16 84 1
17 84 1
1 85 1
3 85 1
6 85 1
9 85 1
10 85 1
11 85 1
12 85 1
13 85 1
14 85 1
15 85 1
3 86 1
6 86 1
7 86 1
8 86 1
9 86 1
12 86 1
16 86 1
17 86 1
1 87 1
4 87 1
8 87 1
9 87 1
10 87 1
11 87 1
12 87 1
13 87 1
14 87 1
4 88 1
6 88 1
7 88 1
9 88 1
12 88 1
14 88 1
15 88 1
16 88 1
17 88 1
1 89 1
3 89 1
4 89 1
5 89 1
9 89 1
10 89 1
11 89 1
12 89 1
1 90 1
3 90 1
5 90 1
6 90 1
7 90 1
11 90 1
12 90 1
13 90 1
14 90 1
15 90 1
16 90 1
17 90 1
1 91 1
6 91 1
8 91 1
14 91 1
15 91 1
17 91 1
18 91 1
18 92 1
3 93 1
4 93 1
7 93 1
8 93 1
13 93 1
14 93 1
15 93 1
18 93 1
1 94 1
4 94 1
5 94 1
6 94 1
7 94 1
8 94 1
11 94 1
15 94 1
18 94 1
5 95 1
6 95 1
7 95 1
9 95 1
10 95 1
13 95 1
18 95 1
6 96 1
7 96 1
11 96 1
13 96 1
14 96 1
16 96 1
18 96 1
1 97 1
3 97 1
5 97 1
6 97 1
7 97 1
10 97 1
11 97 1
14 97 1
17 97 1
18 97 1
3 98 1
6 98 1
8 98 1
9 98 1
10 98 1
14 98 1
16 98 1
18 98 1
1 99 1
3 99 1
4 99 1
5 99 1
7 99 1
9 99 1
14 99 1
16 99 1
17 99 1
18 99 1
4 100 1
6 100 1
7 100 1
9 100 1
12 100 1
14 100 1
15 100 1
17 100 1
18 100 1
1 101 1
5 101 1
7 101 1
8 101 1
9 101 1
10 101 1
11 101 1
12 101 1
13 101 1
14 101 1
15 101 1
17 101 1
18 101 1
1 102 1
3 102 1
4 102 1
5 102 1
7 102 1
9 102 1
12 102 1
13 102 1
14 102 1
16 102 1
17 102 1
18 102 1
5 103 1
7 103 1
9 103 1
10 103 1
12 103 1
13 103 1
18 103 1
1 104 1
5 104 1
8 104 1
9 104 1
10 104 1
12 104 1
16 104 1
17 104 1
18 104 1
1 105 1
4 105 1
6 105 1
7 105 1
8 105 1
9 105 1
10 105 1
11 105 1
12 105 1
16 105 1
18 105 1
1 106 1
3 106 1
4 106 1
5 106 1
9 106 1
11 106 1
12 106 1
15 106 1
16 106 1
18 106 1
1 107 1
4 107 1
5 107 1
6 107 1
8 107 1
11 107 1
12 107 1
14 107 1
18 107 1
4 108 1
6 108 1
9 108 1
11 108 1
12 108 1
13 108 1
15 108 1
17 108 1
18 108 1
1 109 1
5 109 1
8 109 1
9 109 1
19 109 1
19 110 1
1 111 1
3 111 1
4 111 1
21 111 1
21 112 1
19 113 1
19 114 1
21 115 1
1 116 1
3 116 1
5 116 1
19 116 1
1 117 1
3 117 1
9 117 1
19 117 1
20 118 1
1 119 1
5 119 1
8 119 1
9 119 1
19 119 1
20 119 1
21 119 1
1 120 1
5 120 1
8 120 1
9 120 1
20 120 1
1 121 1
3 121 1
9 121 1
19 121 1
20 121 1
21 121 1
20 122 1
1 123 1
5 123 1
8 123 1
9 123 1
20 123 1
1 124 1
5 124 1
8 124 1
9 124 1
20 124 1
1 125 1
3 125 1
5 125 1
19 125 1
20 125 1
21 125 1
1 126 1
3 126 1
9 126 1
20 126 1
1 127 1
5 127 1
8 127 1
9 127 1
20 127 1
21 127 1
1 128 1
5 128 1
8 128 1
9 128 1
20 128 1
21 128 1
5 129 1
9 129 1
20 129 1
21 129 1
1 130 1
3 130 1
9 130 1
19 130 1
20 130 1
19 131 1
20 131 1
1 132 1
5 132 1
8 132 1
9 132 1
19 132 1
20 132 1
1 133 1
5 133 1
8 133 1
9 133 1
20 133 1
21 133 1
1 134 1
3 134 1
9 134 1
20 134 1
21 134 1
19 135 1
20 135 1
1 136 1
4 136 1
8 136 1
9 136 1
19 136 1
21 136 1
1 145 1
4 145 1
8 145 1
9 145 1
1 154 1
5 154 1
8 154 1
9 154 1
3 172 1
4 172 1
8 172 1
1 181 1
3 181 1
4 181 1
1 199 1
3 199 1
9 199 1
3 208 1
4 208 1
5 208 1
8 208 1
9 208 1
