%%MatrixMarket matrix coordinate integer general
19 175 386
3 35 1
1 36 1
8 37 1
6 38 1
6 39 1
6 40 1
1 41 1
3 41 1
8 42 1
4 43 1
6 43 1
1 44 1
3 44 1
4 44 1
6 44 1
8 44 1
10 44 1
13 44 1
14 44 1
4 45 1
6 45 1
4 46 1
8 46 1
10 46 1
13 46 1
14 46 1
4 47 1
8 47 1
4 48 1
8 48 1
10 48 1
13 48 1
14 48 1
1 49 1
3 49 1
4 49 1
5 49 1
7 49 1
10 49 1
11 49 1
4 50 1
6 50 1
8 50 1
10 50 1
13 50 1
14 50 1
1 51 1
3 51 1
4 51 1
5 51 1
6 51 1
7 51 1
10 51 1
11 51 1
4 52 1
4 53 1
6 53 1
8 53 1
10 53 1
13 53 1
14 53 1
4 54 1
6 54 1
8 54 1
1 55 1
3 55 1
4 55 1
8 55 1
10 55 1
13 55 1
14 55 1
4 56 1
2 57 1
9 58 1
5 59 1
7 60 1
10 61 1
1 62 1
8 62 1
9 62 1
10 62 1
11 62 1
11 63 1
14 64 1
10 65 1
11 65 1
14 65 1
5 66 1
10 66 1
14 66 1
2 67 1
3 67 1
5 67 1
6 67 1
7 67 1
8 67 1
10 67 1
14 67 1
1 68 1
2 68 1
5 68 1
7 68 1
8 68 1
9 68 1
14 68 1
2 69 1
3 69 1
6 69 1
7 69 1
8 69 1
10 69 1
11 69 1
14 69 1
2 70 1
10 70 1
14 70 1
1 71 1
2 71 1
5 71 1
8 71 1
9 71 1
13 71 1
14 71 1
2 72 1
3 72 1
6 72 1
7 72 1
8 72 1
9 72 1
11 72 1
10 73 1
13 73 1
14 73 1
2 74 1
3 74 1
5 74 1
6 74 1
8 74 1
9 74 1
10 74 1
5 78 1
9 78 1
10 78 1
14 78 1
2 79 1
3 79 1
6 79 1
7 79 1
8 79 1
10 79 1
14 79 1
13 80 1
9 81 1
14 81 1
1 82 1
2 82 1
8 82 1
9 82 1
10 82 1
11 82 1
13 82 1
2 83 1
3 83 1
5 83 1
6 83 1
8 83 1
9 83 1
10 83 1
11 83 1
14 83 1
2 84 1
10 84 1
11 84 1
14 84 1
12 85 1
16 86 1
15 87 1
19 88 1
18 89 1
5 90 1
7 90 1
11 90 1
13 90 1
14 90 1
16 90 1
18 90 1
19 90 1
1 91 1
3 91 1
6 91 1
15 91 1
16 91 1
19 91 1
17 92 1
3 93 1
5 93 1
6 93 1
7 93 1
8 93 1
11 93 1
13 93 1
14 93 1
17 93 1
18 93 1
19 93 1
1 94 1
5 94 1
7 94 1
8 94 1
11 94 1
13 94 1
14 94 1
16 94 1
17 94 1
18 94 1
3 95 1
5 95 1
6 95 1
7 95 1
8 95 1
11 95 1
12 95 1
13 95 1
14 95 1
16 95 1
17 95 1
18 95 1
19 95 1
3 96 1
5 96 1
6 96 1
7 96 1
8 96 1
11 96 1
12 96 1
13 96 1
14 96 1
17 96 1
19 96 1
12 97 1
15 97 1
16 97 1
17 97 1
18 97 1
3 98 1
6 98 1
8 98 1
12 98 1
17 98 1
18 98 1
10 99 1
13 99 1
14 99 1
15 99 1
17 99 1
18 99 1
19 99 1
1 100 1
5 100 1
7 100 1
8 100 1
11 100 1
13 100 1
14 100 1
16 100 1
17 100 1
18 100 1
19 100 1
3 101 1
5 101 1
6 101 1
7 101 1
8 101 1
11 101 1
12 101 1
13 101 1
14 101 1
16 101 1
17 101 1
19 101 1
1 102 1
3 102 1
6 102 1
15 102 1
16 102 1
17 102 1
19 102 1
3 103 1
5 103 1
6 103 1
7 103 1
8 103 1
11 103 1
12 103 1
13 103 1
14 103 1
17 103 1
18 103 1
19 103 1
5 104 1
7 104 1
11 104 1
12 104 1
13 104 1
14 104 1
15 104 1
17 104 1
19 104 1
1 105 1
5 105 1
7 105 1
8 105 1
11 105 1
12 105 1
13 105 1
14 105 1
15 105 1
16 105 1
17 105 1
18 105 1
19 105 1
1 106 1
8 106 1
12 106 1
15 106 1
18 106 1
19 106 1
1 107 1
3 107 1
6 107 1
3 108 1
5 108 1
6 108 1
7 108 1
8 108 1
10 108 1
11 108 1
12 108 1
15 108 1
18 108 1
19 108 1
1 109 1
5 109 1
7 109 1
8 109 1
11 109 1
12 109 1
13 109 1
14 109 1
15 109 1
18 109 1
19 109 1
1 113 1
8 113 1
10 113 1
13 113 1
14 113 1
10 120 1
13 120 1
14 120 1
1 134 1
5 134 1
7 134 1
8 134 1
10 134 1
11 134 1
3 141 1
5 141 1
6 141 1
7 141 1
8 141 1
10 141 1
11 141 1
5 155 1
7 155 1
11 155 1
13 155 1
14 155 1
3 162 1
5 162 1
6 162 1
7 162 1
8 162 1
11 162 1
13 162 1
14 162 1
