%%MatrixMarket matrix coordinate integer general
315 714 2520
1 1 1
22 1 1
43 1 1
2 2 1
23 2 1
44 2 1
3 3 1
24 3 1
45 3 1
4 4 1
25 4 1
46 4 1
5 5 1
26 5 1
47 5 1
6 6 1
27 6 1
48 6 1
7 7 1
28 7 1
49 7 1
8 8 1
29 8 1
50 8 1
9 9 1
30 9 1
51 9 1
10 10 1
31 10 1
52 10 1
11 11 1
32 11 1
53 11 1
12 12 1
33 12 1
54 12 1
13 13 1
34 13 1
55 13 1
14 14 1
35 14 1
56 14 1
15 15 1
36 15 1
57 15 1
16 16 1
37 16 1
58 16 1
17 17 1
38 17 1
59 17 1
18 18 1
39 18 1
60 18 1
19 19 1
40 19 1
61 19 1
20 20 1
41 20 1
62 20 1
21 21 1
42 21 1
63 21 1
1 22 1
26 22 1
57 22 1
2 23 1
27 23 1
58 23 1
3 24 1
28 24 1
59 24 1
4 25 1
29 25 1
60 25 1
5 26 1
30 26 1
61 26 1
6 27 1
31 27 1
62 27 1
7 28 1
32 28 1
63 28 1
8 29 1
33 29 1
43 29 1
9 30 1
34 30 1
44 30 1
10 31 1
35 31 1
45 31 1
11 32 1
36 32 1
46 32 1
12 33 1
37 33 1
47 33 1
13 34 1
38 34 1
48 34 1
14 35 1
39 35 1
49 35 1
15 36 1
40 36 1
50 36 1
16 37 1
41 37 1
51 37 1
17 38 1
42 38 1
52 38 1
18 39 1
22 39 1
53 39 1
19 40 1
23 40 1
54 40 1
20 41 1
24 41 1
55 41 1
21 42 1
25 42 1
56 42 1
1 43 1
27 43 1
61 43 1
2 44 1
28 44 1
62 44 1
3 45 1
29 45 1
63 45 1
4 46 1
30 46 1
43 46 1
5 47 1
31 47 1
44 47 1
6 48 1
32 48 1
45 48 1
7 49 1
33 49 1
46 49 1
8 50 1
34 50 1
47 50 1
9 51 1
35 51 1
48 51 1
10 52 1
36 52 1
49 52 1
11 53 1
37 53 1
50 53 1
12 54 1
38 54 1
51 54 1
13 55 1
39 55 1
52 55 1
14 56 1
40 56 1
53 56 1
15 57 1
41 57 1
54 57 1
16 58 1
42 58 1
55 58 1
17 59 1
22 59 1
56 59 1
18 60 1
23 60 1
57 60 1
19 61 1
24 61 1
58 61 1
20 62 1
25 62 1
59 62 1
21 63 1
26 63 1
60 63 1
1 64 1
29 64 1
55 64 1
2 65 1
30 65 1
56 65 1
3 66 1
31 66 1
57 66 1
4 67 1
32 67 1
58 67 1
5 68 1
33 68 1
59 68 1
6 69 1
34 69 1
60 69 1
7 70 1
35 70 1
61 70 1
8 71 1
36 71 1
62 71 1
9 72 1
37 72 1
63 72 1
10 73 1
38 73 1
43 73 1
11 74 1
39 74 1
44 74 1
12 75 1
40 75 1
45 75 1
13 76 1
41 76 1
46 76 1
14 77 1
42 77 1
47 77 1
15 78 1
22 78 1
48 78 1
16 79 1
23 79 1
49 79 1
17 80 1
24 80 1
50 80 1
18 81 1
25 81 1
51 81 1
19 82 1
26 82 1
52 82 1
20 83 1
27 83 1
53 83 1
21 84 1
28 84 1
54 84 1
1 85 1
39 85 1
54 85 1
2 86 1
40 86 1
55 86 1
3 87 1
41 87 1
56 87 1
4 88 1
42 88 1
57 88 1
5 89 1
22 89 1
58 89 1
6 90 1
23 90 1
59 90 1
7 91 1
24 91 1
60 91 1
8 92 1
25 92 1
61 92 1
9 93 1
26 93 1
62 93 1
10 94 1
27 94 1
63 94 1
11 95 1
28 95 1
43 95 1
12 96 1
29 96 1
44 96 1
13 97 1
30 97 1
45 97 1
14 98 1
31 98 1
46 98 1
15 99 1
32 99 1
47 99 1
16 100 1
33 100 1
48 100 1
17 101 1
34 101 1
49 101 1
18 102 1
35 102 1
50 102 1
19 103 1
36 103 1
51 103 1
20 104 1
37 104 1
52 104 1
21 105 1
38 105 1
53 105 1
64 106 1
85 106 1
106 106 1
65 107 1
86 107 1
107 107 1
66 108 1
87 108 1
108 108 1
67 109 1
88 109 1
109 109 1
68 110 1
89 110 1
110 110 1
69 111 1
90 111 1
111 111 1
70 112 1
91 112 1
112 112 1
71 113 1
92 113 1
113 113 1
72 114 1
93 114 1
114 114 1
73 115 1
94 115 1
115 115 1
74 116 1
95 116 1
116 116 1
75 117 1
96 117 1
117 117 1
76 118 1
97 118 1
118 118 1
77 119 1
98 119 1
119 119 1
78 120 1
99 120 1
120 120 1
79 121 1
100 121 1
121 121 1
80 122 1
101 122 1
122 122 1
81 123 1
102 123 1
123 123 1
82 124 1
103 124 1
124 124 1
83 125 1
104 125 1
125 125 1
84 126 1
105 126 1
126 126 1
64 127 1
89 127 1
120 127 1
65 128 1
90 128 1
121 128 1
66 129 1
91 129 1
122 129 1
67 130 1
92 130 1
123 130 1
68 131 1
93 131 1
124 131 1
69 132 1
94 132 1
125 132 1
70 133 1
95 133 1
126 133 1
71 134 1
96 134 1
106 134 1
72 135 1
97 135 1
107 135 1
73 136 1
98 136 1
108 136 1
74 137 1
99 137 1
109 137 1
75 138 1
100 138 1
110 138 1
76 139 1
101 139 1
111 139 1
77 140 1
102 140 1
112 140 1
78 141 1
103 141 1
113 141 1
79 142 1
104 142 1
114 142 1
80 143 1
105 143 1
115 143 1
81 144 1
85 144 1
116 144 1
82 145 1
86 145 1
117 145 1
83 146 1
87 146 1
118 146 1
84 147 1
88 147 1
119 147 1
64 148 1
90 148 1
124 148 1
65 149 1
91 149 1
125 149 1
66 150 1
92 150 1
126 150 1
67 151 1
93 151 1
106 151 1
68 152 1
94 152 1
107 152 1
69 153 1
95 153 1
108 153 1
70 154 1
96 154 1
109 154 1
71 155 1
97 155 1
110 155 1
72 156 1
98 156 1
111 156 1
73 157 1
99 157 1
112 157 1
74 158 1
100 158 1
113 158 1
75 159 1
101 159 1
114 159 1
76 160 1
102 160 1
115 160 1
77 161 1
103 161 1
116 161 1
78 162 1
104 162 1
117 162 1
79 163 1
105 163 1
118 163 1
80 164 1
85 164 1
119 164 1
81 165 1
86 165 1
120 165 1
82 166 1
87 166 1
121 166 1
83 167 1
88 167 1
122 167 1
84 168 1
89 168 1
123 168 1
64 169 1
92 169 1
118 169 1
65 170 1
93 170 1
119 170 1
66 171 1
94 171 1
120 171 1
67 172 1
95 172 1
121 172 1
68 173 1
96 173 1
122 173 1
69 174 1
97 174 1
123 174 1
70 175 1
98 175 1
124 175 1
71 176 1
99 176 1
125 176 1
72 177 1
100 177 1
126 177 1
73 178 1
101 178 1
106 178 1
74 179 1
102 179 1
107 179 1
75 180 1
103 180 1
108 180 1
76 181 1
104 181 1
109 181 1
77 182 1
105 182 1
110 182 1
78 183 1
85 183 1
111 183 1
79 184 1
86 184 1
112 184 1
80 185 1
87 185 1
113 185 1
81 186 1
88 186 1
114 186 1
82 187 1
89 187 1
115 187 1
83 188 1
90 188 1
116 188 1
84 189 1
91 189 1
117 189 1
64 190 1
102 190 1
117 190 1
65 191 1
103 191 1
118 191 1
66 192 1
104 192 1
119 192 1
67 193 1
105 193 1
120 193 1
68 194 1
85 194 1
121 194 1
69 195 1
86 195 1
122 195 1
70 196 1
87 196 1
123 196 1
71 197 1
88 197 1
124 197 1
72 198 1
89 198 1
125 198 1
73 199 1
90 199 1
126 199 1
74 200 1
91 200 1
106 200 1
75 201 1
92 201 1
107 201 1
76 202 1
93 202 1
108 202 1
77 203 1
94 203 1
109 203 1
78 204 1
95 204 1
110 204 1
79 205 1
96 205 1
111 205 1
80 206 1
97 206 1
112 206 1
81 207 1
98 207 1
113 207 1
82 208 1
99 208 1
114 208 1
83 209 1
100 209 1
115 209 1
84 210 1
101 210 1
116 210 1
127 211 1
148 211 1
169 211 1
128 212 1
149 212 1
170 212 1
129 213 1
150 213 1
171 213 1
130 214 1
151 214 1
172 214 1
131 215 1
152 215 1
173 215 1
132 216 1
153 216 1
174 216 1
133 217 1
154 217 1
175 217 1
134 218 1
155 218 1
176 218 1
135 219 1
156 219 1
177 219 1
136 220 1
157 220 1
178 220 1
137 221 1
158 221 1
179 221 1
138 222 1
159 222 1
180 222 1
139 223 1
160 223 1
181 223 1
140 224 1
161 224 1
182 224 1
141 225 1
162 225 1
183 225 1
142 226 1
163 226 1
184 226 1
143 227 1
164 227 1
185 227 1
144 228 1
165 228 1
186 228 1
145 229 1
166 229 1
187 229 1
146 230 1
167 230 1
188 230 1
147 231 1
168 231 1
189 231 1
127 232 1
152 232 1
183 232 1
128 233 1
153 233 1
184 233 1
129 234 1
154 234 1
185 234 1
130 235 1
155 235 1
186 235 1
131 236 1
156 236 1
187 236 1
132 237 1
157 237 1
188 237 1
133 238 1
158 238 1
189 238 1
134 239 1
159 239 1
169 239 1
135 240 1
160 240 1
170 240 1
136 241 1
161 241 1
171 241 1
137 242 1
162 242 1
172 242 1
138 243 1
163 243 1
173 243 1
139 244 1
164 244 1
174 244 1
140 245 1
165 245 1
175 245 1
141 246 1
166 246 1
176 246 1
142 247 1
167 247 1
177 247 1
143 248 1
168 248 1
178 248 1
144 249 1
148 249 1
179 249 1
145 250 1
149 250 1
180 250 1
146 251 1
150 251 1
181 251 1
147 252 1
151 252 1
182 252 1
127 253 1
153 253 1
187 253 1
128 254 1
154 254 1
188 254 1
129 255 1
155 255 1
189 255 1
130 256 1
156 256 1
169 256 1
131 257 1
157 257 1
170 257 1
132 258 1
158 258 1
171 258 1
133 259 1
159 259 1
172 259 1
134 260 1
160 260 1
173 260 1
135 261 1
161 261 1
174 261 1
136 262 1
162 262 1
175 262 1
137 263 1
163 263 1
176 263 1
138 264 1
164 264 1
177 264 1
139 265 1
165 265 1
178 265 1
140 266 1
166 266 1
179 266 1
141 267 1
167 267 1
180 267 1
142 268 1
168 268 1
181 268 1
143 269 1
148 269 1
182 269 1
144 270 1
149 270 1
183 270 1
145 271 1
150 271 1
184 271 1
146 272 1
151 272 1
185 272 1
147 273 1
152 273 1
186 273 1
127 274 1
155 274 1
181 274 1
128 275 1
156 275 1
182 275 1
129 276 1
157 276 1
183 276 1
130 277 1
158 277 1
184 277 1
131 278 1
159 278 1
185 278 1
132 279 1
160 279 1
186 279 1
133 280 1
161 280 1
187 280 1
134 281 1
162 281 1
188 281 1
135 282 1
163 282 1
189 282 1
136 283 1
164 283 1
169 283 1
137 284 1
165 284 1
170 284 1
138 285 1
166 285 1
171 285 1
139 286 1
167 286 1
172 286 1
140 287 1
168 287 1
173 287 1
141 288 1
148 288 1
174 288 1
142 289 1
149 289 1
175 289 1
143 290 1
150 290 1
176 290 1
144 291 1
151 291 1
177 291 1
145 292 1
152 292 1
178 292 1
146 293 1
153 293 1
179 293 1
147 294 1
154 294 1
180 294 1
127 295 1
165 295 1
180 295 1
128 296 1
166 296 1
181 296 1
129 297 1
167 297 1
182 297 1
130 298 1
168 298 1
183 298 1
131 299 1
148 299 1
184 299 1
132 300 1
149 300 1
185 300 1
133 301 1
150 301 1
186 301 1
134 302 1
151 302 1
187 302 1
135 303 1
152 303 1
188 303 1
136 304 1
153 304 1
189 304 1
137 305 1
154 305 1
169 305 1
138 306 1
155 306 1
170 306 1
139 307 1
156 307 1
171 307 1
140 308 1
157 308 1
172 308 1
141 309 1
158 309 1
173 309 1
142 310 1
159 310 1
174 310 1
143 311 1
160 311 1
175 311 1
144 312 1
161 312 1
176 312 1
145 313 1
162 313 1
177 313 1
146 314 1
163 314 1
178 314 1
147 315 1
164 315 1
179 315 1
190 316 1
211 316 1
232 316 1
191 317 1
212 317 1
233 317 1
192 318 1
213 318 1
234 318 1
193 319 1
214 319 1
235 319 1
194 320 1
215 320 1
236 320 1
195 321 1
216 321 1
237 321 1
196 322 1
217 322 1
238 322 1
197 323 1
218 323 1
239 323 1
198 324 1
219 324 1
240 324 1
199 325 1
220 325 1
241 325 1
200 326 1
221 326 1
242 326 1
201 327 1
222 327 1
243 327 1
202 328 1
223 328 1
244 328 1
203 329 1
224 329 1
245 329 1
204 330 1
225 330 1
246 330 1
205 331 1
226 331 1
247 331 1
206 332 1
227 332 1
248 332 1
207 333 1
228 333 1
249 333 1
208 334 1
229 334 1
250 334 1
209 335 1
230 335 1
251 335 1
210 336 1
231 336 1
252 336 1
190 337 1
215 337 1
246 337 1
191 338 1
216 338 1
247 338 1
192 339 1
217 339 1
248 339 1
193 340 1
218 340 1
249 340 1
194 341 1
219 341 1
250 341 1
195 342 1
220 342 1
251 342 1
196 343 1
221 343 1
252 343 1
197 344 1
222 344 1
232 344 1
198 345 1
223 345 1
233 345 1
199 346 1
224 346 1
234 346 1
200 347 1
225 347 1
235 347 1
201 348 1
226 348 1
236 348 1
202 349 1
227 349 1
237 349 1
203 350 1
228 350 1
238 350 1
204 351 1
229 351 1
239 351 1
205 352 1
230 352 1
240 352 1
206 353 1
231 353 1
241 353 1
207 354 1
211 354 1
242 354 1
208 355 1
212 355 1
243 355 1
209 356 1
213 356 1
244 356 1
210 357 1
214 357 1
245 357 1
190 358 1
216 358 1
250 358 1
191 359 1
217 359 1
251 359 1
192 360 1
218 360 1
252 360 1
193 361 1
219 361 1
232 361 1
194 362 1
220 362 1
233 362 1
195 363 1
221 363 1
234 363 1
196 364 1
222 364 1
235 364 1
197 365 1
223 365 1
236 365 1
198 366 1
224 366 1
237 366 1
199 367 1
225 367 1
238 367 1
200 368 1
226 368 1
239 368 1
201 369 1
227 369 1
240 369 1
202 370 1
228 370 1
241 370 1
203 371 1
229 371 1
242 371 1
204 372 1
230 372 1
243 372 1
205 373 1
231 373 1
244 373 1
206 374 1
211 374 1
245 374 1
207 375 1
212 375 1
246 375 1
208 376 1
213 376 1
247 376 1
209 377 1
214 377 1
248 377 1
210 378 1
215 378 1
249 378 1
190 379 1
218 379 1
244 379 1
191 380 1
219 380 1
245 380 1
192 381 1
220 381 1
246 381 1
193 382 1
221 382 1
247 382 1
194 383 1
222 383 1
248 383 1
195 384 1
223 384 1
249 384 1
196 385 1
224 385 1
250 385 1
197 386 1
225 386 1
251 386 1
198 387 1
226 387 1
252 387 1
199 388 1
227 388 1
232 388 1
200 389 1
228 389 1
233 389 1
201 390 1
229 390 1
234 390 1
202 391 1
230 391 1
235 391 1
203 392 1
231 392 1
236 392 1
204 393 1
211 393 1
237 393 1
205 394 1
212 394 1
238 394 1
206 395 1
213 395 1
239 395 1
207 396 1
214 396 1
240 396 1
208 397 1
215 397 1
241 397 1
209 398 1
216 398 1
242 398 1
210 399 1
217 399 1
243 399 1
190 400 1
228 400 1
243 400 1
191 401 1
229 401 1
244 401 1
192 402 1
230 402 1
245 402 1
193 403 1
231 403 1
246 403 1
194 404 1
211 404 1
247 404 1
195 405 1
212 405 1
248 405 1
196 406 1
213 406 1
249 406 1
197 407 1
214 407 1
250 407 1
198 408 1
215 408 1
251 408 1
199 409 1
216 409 1
252 409 1
200 410 1
217 410 1
232 410 1
201 411 1
218 411 1
233 411 1
202 412 1
219 412 1
234 412 1
203 413 1
220 413 1
235 413 1
204 414 1
221 414 1
236 414 1
205 415 1
222 415 1
237 415 1
206 416 1
223 416 1
238 416 1
207 417 1
224 417 1
239 417 1
208 418 1
225 418 1
240 418 1
209 419 1
226 419 1
241 419 1
210 420 1
227 420 1
242 420 1
253 421 1
274 421 1
295 421 1
254 422 1
275 422 1
296 422 1
255 423 1
276 423 1
297 423 1
256 424 1
277 424 1
298 424 1
257 425 1
278 425 1
299 425 1
258 426 1
279 426 1
300 426 1
259 427 1
280 427 1
301 427 1
260 428 1
281 428 1
302 428 1
261 429 1
282 429 1
303 429 1
262 430 1
283 430 1
304 430 1
263 431 1
284 431 1
305 431 1
264 432 1
285 432 1
306 432 1
265 433 1
286 433 1
307 433 1
266 434 1
287 434 1
308 434 1
267 435 1
288 435 1
309 435 1
268 436 1
289 436 1
310 436 1
269 437 1
290 437 1
311 437 1
270 438 1
291 438 1
312 438 1
271 439 1
292 439 1
313 439 1
272 440 1
293 440 1
314 440 1
273 441 1
294 441 1
315 441 1
253 442 1
278 442 1
309 442 1
254 443 1
279 443 1
310 443 1
255 444 1
280 444 1
311 444 1
256 445 1
281 445 1
312 445 1
257 446 1
282 446 1
313 446 1
258 447 1
283 447 1
314 447 1
259 448 1
284 448 1
315 448 1
260 449 1
285 449 1
295 449 1
261 450 1
286 450 1
296 450 1
262 451 1
287 451 1
297 451 1
263 452 1
288 452 1
298 452 1
264 453 1
289 453 1
299 453 1
265 454 1
290 454 1
300 454 1
266 455 1
291 455 1
301 455 1
267 456 1
292 456 1
302 456 1
268 457 1
293 457 1
303 457 1
269 458 1
294 458 1
304 458 1
270 459 1
274 459 1
305 459 1
271 460 1
275 460 1
306 460 1
272 461 1
276 461 1
307 461 1
273 462 1
277 462 1
308 462 1
253 463 1
279 463 1
313 463 1
254 464 1
280 464 1
314 464 1
255 465 1
281 465 1
315 465 1
256 466 1
282 466 1
295 466 1
257 467 1
283 467 1
296 467 1
258 468 1
284 468 1
297 468 1
259 469 1
285 469 1
298 469 1
260 470 1
286 470 1
299 470 1
261 471 1
287 471 1
300 471 1
262 472 1
288 472 1
301 472 1
263 473 1
289 473 1
302 473 1
264 474 1
290 474 1
303 474 1
265 475 1
291 475 1
304 475 1
266 476 1
292 476 1
305 476 1
267 477 1
293 477 1
306 477 1
268 478 1
294 478 1
307 478 1
269 479 1
274 479 1
308 479 1
270 480 1
275 480 1
309 480 1
271 481 1
276 481 1
310 481 1
272 482 1
277 482 1
311 482 1
273 483 1
278 483 1
312 483 1
253 484 1
281 484 1
307 484 1
254 485 1
282 485 1
308 485 1
255 486 1
283 486 1
309 486 1
256 487 1
284 487 1
310 487 1
257 488 1
285 488 1
311 488 1
258 489 1
286 489 1
312 489 1
259 490 1
287 490 1
313 490 1
260 491 1
288 491 1
314 491 1
261 492 1
289 492 1
315 492 1
262 493 1
290 493 1
295 493 1
263 494 1
291 494 1
296 494 1
264 495 1
292 495 1
297 495 1
265 496 1
293 496 1
298 496 1
266 497 1
294 497 1
299 497 1
267 498 1
274 498 1
300 498 1
268 499 1
275 499 1
301 499 1
269 500 1
276 500 1
302 500 1
270 501 1
277 501 1
303 501 1
271 502 1
278 502 1
304 502 1
272 503 1
279 503 1
305 503 1
273 504 1
280 504 1
306 504 1
253 505 1
291 505 1
306 505 1
254 506 1
292 506 1
307 506 1
255 507 1
293 507 1
308 507 1
256 508 1
294 508 1
309 508 1
257 509 1
274 509 1
310 509 1
258 510 1
275 510 1
311 510 1
259 511 1
276 511 1
312 511 1
260 512 1
277 512 1
313 512 1
261 513 1
278 513 1
314 513 1
262 514 1
279 514 1
315 514 1
263 515 1
280 515 1
295 515 1
264 516 1
281 516 1
296 516 1
265 517 1
282 517 1
297 517 1
266 518 1
283 518 1
298 518 1
267 519 1
284 519 1
299 519 1
268 520 1
285 520 1
300 520 1
269 521 1
286 521 1
301 521 1
270 522 1
287 522 1
302 522 1
271 523 1
288 523 1
303 523 1
272 524 1
289 524 1
304 524 1
273 525 1
290 525 1
305 525 1
1 526 1
64 526 1
127 526 1
190 526 1
253 526 1
2 527 1
65 527 1
128 527 1
191 527 1
254 527 1
3 528 1
66 528 1
129 528 1
192 528 1
255 528 1
4 529 1
67 529 1
130 529 1
193 529 1
256 529 1
5 530 1
68 530 1
131 530 1
194 530 1
257 530 1
6 531 1
69 531 1
132 531 1
195 531 1
258 531 1
7 532 1
70 532 1
133 532 1
196 532 1
259 532 1
8 533 1
71 533 1
134 533 1
197 533 1
260 533 1
9 534 1
72 534 1
135 534 1
198 534 1
261 534 1
10 535 1
73 535 1
136 535 1
199 535 1
262 535 1
11 536 1
74 536 1
137 536 1
200 536 1
263 536 1
12 537 1
75 537 1
138 537 1
201 537 1
264 537 1
13 538 1
76 538 1
139 538 1
202 538 1
265 538 1
14 539 1
77 539 1
140 539 1
203 539 1
266 539 1
15 540 1
78 540 1
141 540 1
204 540 1
267 540 1
16 541 1
79 541 1
142 541 1
205 541 1
268 541 1
17 542 1
80 542 1
143 542 1
206 542 1
269 542 1
18 543 1
81 543 1
144 543 1
207 543 1
270 543 1
19 544 1
82 544 1
145 544 1
208 544 1
271 544 1
20 545 1
83 545 1
146 545 1
209 545 1
272 545 1
21 546 1
84 546 1
147 546 1
210 546 1
273 546 1
22 547 1
85 547 1
148 547 1
211 547 1
274 547 1
23 548 1
86 548 1
149 548 1
212 548 1
275 548 1
24 549 1
87 549 1
150 549 1
213 549 1
276 549 1
25 550 1
88 550 1
151 550 1
214 550 1
277 550 1
26 551 1
89 551 1
152 551 1
215 551 1
278 551 1
27 552 1
90 552 1
153 552 1
216 552 1
279 552 1
28 553 1
91 553 1
154 553 1
217 553 1
280 553 1
29 554 1
92 554 1
155 554 1
218 554 1
281 554 1
30 555 1
93 555 1
156 555 1
219 555 1
282 555 1
31 556 1
94 556 1
157 556 1
220 556 1
283 556 1
32 557 1
95 557 1
158 557 1
221 557 1
284 557 1
33 558 1
96 558 1
159 558 1
222 558 1
285 558 1
34 559 1
97 559 1
160 559 1
223 559 1
286 559 1
35 560 1
98 560 1
161 560 1
224 560 1
287 560 1
36 561 1
99 561 1
162 561 1
225 561 1
288 561 1
37 562 1
100 562 1
163 562 1
226 562 1
289 562 1
38 563 1
101 563 1
164 563 1
227 563 1
290 563 1
39 564 1
102 564 1
165 564 1
228 564 1
291 564 1
40 565 1
103 565 1
166 565 1
229 565 1
292 565 1
41 566 1
104 566 1
167 566 1
230 566 1
293 566 1
42 567 1
105 567 1
168 567 1
231 567 1
294 567 1
43 568 1
106 568 1
169 568 1
232 568 1
295 568 1
44 569 1
107 569 1
170 569 1
233 569 1
296 569 1
45 570 1
108 570 1
171 570 1
234 570 1
297 570 1
46 571 1
109 571 1
172 571 1
235 571 1
298 571 1
47 572 1
110 572 1
173 572 1
236 572 1
299 572 1
48 573 1
111 573 1
174 573 1
237 573 1
300 573 1
49 574 1
112 574 1
175 574 1
238 574 1
301 574 1
50 575 1
113 575 1
176 575 1
239 575 1
302 575 1
51 576 1
114 576 1
177 576 1
240 576 1
303 576 1
52 577 1
115 577 1
178 577 1
241 577 1
304 577 1
53 578 1
116 578 1
179 578 1
242 578 1
305 578 1
54 579 1
117 579 1
180 579 1
243 579 1
306 579 1
55 580 1
118 580 1
181 580 1
244 580 1
307 580 1
56 581 1
119 581 1
182 581 1
245 581 1
308 581 1
57 582 1
120 582 1
183 582 1
246 582 1
309 582 1
58 583 1
121 583 1
184 583 1
247 583 1
310 583 1
59 584 1
122 584 1
185 584 1
248 584 1
311 584 1
60 585 1
123 585 1
186 585 1
249 585 1
312 585 1
61 586 1
124 586 1
187 586 1
250 586 1
313 586 1
62 587 1
125 587 1
188 587 1
251 587 1
314 587 1
63 588 1
126 588 1
189 588 1
252 588 1
315 588 1
1 589 1
81 589 1
143 589 1
204 589 1
257 589 1
2 590 1
82 590 1
144 590 1
205 590 1
258 590 1
3 591 1
83 591 1
145 591 1
206 591 1
259 591 1
4 592 1
84 592 1
146 592 1
207 592 1
260 592 1
5 593 1
64 593 1
147 593 1
208 593 1
261 593 1
6 594 1
65 594 1
127 594 1
209 594 1
262 594 1
7 595 1
66 595 1
128 595 1
210 595 1
263 595 1
8 596 1
67 596 1
129 596 1
190 596 1
264 596 1
9 597 1
68 597 1
130 597 1
191 597 1
265 597 1
10 598 1
69 598 1
131 598 1
192 598 1
266 598 1
11 599 1
70 599 1
132 599 1
193 599 1
267 599 1
12 600 1
71 600 1
133 600 1
194 600 1
268 600 1
13 601 1
72 601 1
134 601 1
195 601 1
269 601 1
14 602 1
73 602 1
135 602 1
196 602 1
270 602 1
15 603 1
74 603 1
136 603 1
197 603 1
271 603 1
16 604 1
75 604 1
137 604 1
198 604 1
272 604 1
17 605 1
76 605 1
138 605 1
199 605 1
273 605 1
18 606 1
77 606 1
139 606 1
200 606 1
253 606 1
19 607 1
78 607 1
140 607 1
201 607 1
254 607 1
20 608 1
79 608 1
141 608 1
202 608 1
255 608 1
21 609 1
80 609 1
142 609 1
203 609 1
256 609 1
22 610 1
102 610 1
164 610 1
225 610 1
278 610 1
23 611 1
103 611 1
165 611 1
226 611 1
279 611 1
24 612 1
104 612 1
166 612 1
227 612 1
280 612 1
25 613 1
105 613 1
167 613 1
228 613 1
281 613 1
26 614 1
85 614 1
168 614 1
229 614 1
282 614 1
27 615 1
86 615 1
148 615 1
230 615 1
283 615 1
28 616 1
87 616 1
149 616 1
231 616 1
284 616 1
29 617 1
88 617 1
150 617 1
211 617 1
285 617 1
30 618 1
89 618 1
151 618 1
212 618 1
286 618 1
31 619 1
90 619 1
152 619 1
213 619 1
287 619 1
32 620 1
91 620 1
153 620 1
214 620 1
288 620 1
33 621 1
92 621 1
154 621 1
215 621 1
289 621 1
34 622 1
93 622 1
155 622 1
216 622 1
290 622 1
35 623 1
94 623 1
156 623 1
217 623 1
291 623 1
36 624 1
95 624 1
157 624 1
218 624 1
292 624 1
37 625 1
96 625 1
158 625 1
219 625 1
293 625 1
38 626 1
97 626 1
159 626 1
220 626 1
294 626 1
39 627 1
98 627 1
160 627 1
221 627 1
274 627 1
40 628 1
99 628 1
161 628 1
222 628 1
275 628 1
41 629 1
100 629 1
162 629 1
223 629 1
276 629 1
42 630 1
101 630 1
163 630 1
224 630 1
277 630 1
43 631 1
123 631 1
185 631 1
246 631 1
299 631 1
44 632 1
124 632 1
186 632 1
247 632 1
300 632 1
45 633 1
125 633 1
187 633 1
248 633 1
301 633 1
46 634 1
126 634 1
188 634 1
249 634 1
302 634 1
47 635 1
106 635 1
189 635 1
250 635 1
303 635 1
48 636 1
107 636 1
169 636 1
251 636 1
304 636 1
49 637 1
108 637 1
170 637 1
252 637 1
305 637 1
50 638 1
109 638 1
171 638 1
232 638 1
306 638 1
51 639 1
110 639 1
172 639 1
233 639 1
307 639 1
52 640 1
111 640 1
173 640 1
234 640 1
308 640 1
53 641 1
112 641 1
174 641 1
235 641 1
309 641 1
54 642 1
113 642 1
175 642 1
236 642 1
310 642 1
55 643 1
114 643 1
176 643 1
237 643 1
311 643 1
56 644 1
115 644 1
177 644 1
238 644 1
312 644 1
57 645 1
116 645 1
178 645 1
239 645 1
313 645 1
58 646 1
117 646 1
179 646 1
240 646 1
314 646 1
59 647 1
118 647 1
180 647 1
241 647 1
315 647 1
60 648 1
119 648 1
181 648 1
242 648 1
295 648 1
61 649 1
120 649 1
182 649 1
243 649 1
296 649 1
62 650 1
121 650 1
183 650 1
244 650 1
297 650 1
63 651 1
122 651 1
184 651 1
245 651 1
298 651 1
1 652 1
71 652 1
130 652 1
199 652 1
263 652 1
2 653 1
72 653 1
131 653 1
200 653 1
264 653 1
3 654 1
73 654 1
132 654 1
201 654 1
265 654 1
4 655 1
74 655 1
133 655 1
202 655 1
266 655 1
5 656 1
75 656 1
134 656 1
203 656 1
267 656 1
6 657 1
76 657 1
135 657 1
204 657 1
268 657 1
7 658 1
77 658 1
136 658 1
205 658 1
269 658 1
8 659 1
78 659 1
137 659 1
206 659 1
270 659 1
9 660 1
79 660 1
138 660 1
207 660 1
271 660 1
10 661 1
80 661 1
139 661 1
208 661 1
272 661 1
11 662 1
81 662 1
140 662 1
209 662 1
273 662 1
12 663 1
82 663 1
141 663 1
210 663 1
253 663 1
13 664 1
83 664 1
142 664 1
190 664 1
254 664 1
14 665 1
84 665 1
143 665 1
191 665 1
255 665 1
15 666 1
64 666 1
144 666 1
192 666 1
256 666 1
16 667 1
65 667 1
145 667 1
193 667 1
257 667 1
17 668 1
66 668 1
146 668 1
194 668 1
258 668 1
18 669 1
67 669 1
147 669 1
195 669 1
259 669 1
19 670 1
68 670 1
127 670 1
196 670 1
260 670 1
20 671 1
69 671 1
128 671 1
197 671 1
261 671 1
21 672 1
70 672 1
129 672 1
198 672 1
262 672 1
22 673 1
92 673 1
151 673 1
220 673 1
284 673 1
23 674 1
93 674 1
152 674 1
221 674 1
285 674 1
24 675 1
94 675 1
153 675 1
222 675 1
286 675 1
25 676 1
95 676 1
154 676 1
223 676 1
287 676 1
26 677 1
96 677 1
155 677 1
224 677 1
288 677 1
27 678 1
97 678 1
156 678 1
225 678 1
289 678 1
28 679 1
98 679 1
157 679 1
226 679 1
290 679 1
29 680 1
99 680 1
158 680 1
227 680 1
291 680 1
30 681 1
100 681 1
159 681 1
228 681 1
292 681 1
31 682 1
101 682 1
160 682 1
229 682 1
293 682 1
32 683 1
102 683 1
161 683 1
230 683 1
294 683 1
33 684 1
103 684 1
162 684 1
231 684 1
274 684 1
34 685 1
104 685 1
163 685 1
211 685 1
275 685 1
35 686 1
105 686 1
164 686 1
212 686 1
276 686 1
36 687 1
85 687 1
165 687 1
213 687 1
277 687 1
37 688 1
86 688 1
166 688 1
214 688 1
278 688 1
38 689 1
87 689 1
167 689 1
215 689 1
279 689 1
39 690 1
88 690 1
168 690 1
216 690 1
280 690 1
40 691 1
89 691 1
148 691 1
217 691 1
281 691 1
41 692 1
90 692 1
149 692 1
218 692 1
282 692 1
42 693 1
91 693 1
150 693 1
219 693 1
283 693 1
43 694 1
113 694 1
172 694 1
241 694 1
305 694 1
44 695 1
114 695 1
173 695 1
242 695 1
306 695 1
45 696 1
115 696 1
174 696 1
243 696 1
307 696 1
46 697 1
116 697 1
175 697 1
244 697 1
308 697 1
47 698 1
117 698 1
176 698 1
245 698 1
309 698 1
48 699 1
118 699 1
177 699 1
246 699 1
310 699 1
49 700 1
119 700 1
178 700 1
247 700 1
311 700 1
50 701 1
120 701 1
179 701 1
248 701 1
312 701 1
51 702 1
121 702 1
180 702 1
249 702 1
313 702 1
52 703 1
122 703 1
181 703 1
250 703 1
314 703 1
53 704 1
123 704 1
182 704 1
251 704 1
315 704 1
54 705 1
124 705 1
183 705 1
252 705 1
295 705 1
55 706 1
125 706 1
184 706 1
232 706 1
296 706 1
56 707 1
126 707 1
185 707 1
233 707 1
297 707 1
57 708 1
106 708 1
186 708 1
234 708 1
298 708 1
58 709 1
107 709 1
187 709 1
235 709 1
299 709 1
59 710 1
108 710 1
188 710 1
236 710 1
300 710 1
60 711 1
109 711 1
189 711 1
237 711 1
301 711 1
61 712 1
110 712 1
169 712 1
238 712 1
302 712 1
62 713 1
111 713 1
170 713 1
239 713 1
303 713 1
63 714 1
112 714 1
171 714 1
240 714 1
304 714 1
