%%MatrixMarket matrix coordinate integer general
100 714 11544
2 1 1
3 1 1
4 1 1
6 1 1
7 1 1
13 1 1
14 1 1
16 1 1
18 1 1
19 1 1
25 1 1
26 1 1
28 1 1
29 1 1
30 1 1
31 1 1
35 1 1
36 1 1
39 1 1
40 1 1
42 1 1
49 1 1
50 1 1
55 1 1
56 1 1
57 1 1
59 1 1
60 1 1
61 1 1
63 1 1
64 1 1
65 1 1
66 1 1
69 1 1
70 1 1
71 1 1
75 1 1
77 1 1
80 1 1
81 1 1
84 1 1
86 1 1
88 1 1
91 1 1
93 1 1
95 1 1
96 1 1
1 2 1
4 2 1
5 2 1
7 2 1
10 2 1
12 2 1
13 2 1
15 2 1
16 2 1
17 2 1
19 2 1
23 2 1
24 2 1
25 2 1
26 2 1
27 2 1
28 2 1
30 2 1
31 2 1
33 2 1
34 2 1
35 2 1
40 2 1
41 2 1
42 2 1
49 2 1
53 2 1
54 2 1
58 2 1
59 2 1
61 2 1
62 2 1
64 2 1
65 2 1
66 2 1
67 2 1
68 2 1
70 2 1
71 2 1
72 2 1
73 2 1
74 2 1
75 2 1
78 2 1
80 2 1
81 2 1
82 2 1
83 2 1
85 2 1
86 2 1
88 2 1
90 2 1
92 2 1
93 2 1
3 3 1
4 3 1
5 3 1
7 3 1
8 3 1
9 3 1
10 3 1
11 3 1
12 3 1
18 3 1
20 3 1
22 3 1
23 3 1
24 3 1
25 3 1
27 3 1
28 3 1
30 3 1
32 3 1
33 3 1
37 3 1
40 3 1
41 3 1
42 3 1
49 3 1
51 3 1
55 3 1
56 3 1
57 3 1
58 3 1
62 3 1
63 3 1
68 3 1
72 3 1
74 3 1
75 3 1
76 3 1
78 3 1
81 3 1
85 3 1
87 3 1
88 3 1
89 3 1
92 3 1
93 3 1
94 3 1
98 3 1
99 3 1
1 4 1
2 4 1
5 4 1
8 4 1
9 4 1
14 4 1
16 4 1
17 4 1
18 4 1
19 4 1
20 4 1
21 4 1
22 4 1
24 4 1
25 4 1
27 4 1
29 4 1
33 4 1
36 4 1
37 4 1
41 4 1
42 4 1
48 4 1
54 4 1
55 4 1
60 4 1
61 4 1
63 4 1
65 4 1
67 4 1
69 4 1
71 4 1
76 4 1
77 4 1
78 4 1
79 4 1
80 4 1
81 4 1
86 4 1
87 4 1
92 4 1
97 4 1
2 5 1
4 5 1
6 5 1
11 5 1
12 5 1
13 5 1
14 5 1
16 5 1
17 5 1
21 5 1
22 5 1
23 5 1
24 5 1
29 5 1
34 5 1
36 5 1
37 5 1
40 5 1
48 5 1
49 5 1
50 5 1
57 5 1
59 5 1
60 5 1
62 5 1
64 5 1
66 5 1
67 5 1
68 5 1
69 5 1
70 5 1
71 5 1
73 5 1
74 5 1
75 5 1
76 5 1
79 5 1
80 5 1
83 5 1
85 5 1
86 5 1
91 5 1
92 5 1
93 5 1
95 5 1
98 5 1
6 6 1
7 6 1
12 6 1
15 6 1
16 6 1
20 6 1
22 6 1
26 6 1
29 6 1
30 6 1
31 6 1
32 6 1
33 6 1
34 6 1
35 6 1
36 6 1
39 6 1
40 6 1
41 6 1
48 6 1
49 6 1
53 6 1
54 6 1
55 6 1
56 6 1
57 6 1
58 6 1
59 6 1
61 6 1
70 6 1
72 6 1
73 6 1
74 6 1
75 6 1
78 6 1
79 6 1
80 6 1
84 6 1
85 6 1
87 6 1
88 6 1
90 6 1
91 6 1
93 6 1
94 6 1
98 6 1
2 7 1
4 7 1
5 7 1
7 7 1
10 7 1
12 7 1
14 7 1
15 7 1
18 7 1
19 7 1
21 7 1
25 7 1
26 7 1
30 7 1
32 7 1
34 7 1
35 7 1
37 7 1
39 7 1
41 7 1
49 7 1
51 7 1
54 7 1
55 7 1
62 7 1
63 7 1
64 7 1
65 7 1
66 7 1
75 7 1
76 7 1
78 7 1
80 7 1
82 7 1
84 7 1
86 7 1
87 7 1
89 7 1
90 7 1
94 7 1
98 7 1
2 8 1
3 8 1
4 8 1
5 8 1
7 8 1
8 8 1
9 8 1
14 8 1
17 8 1
19 8 1
23 8 1
24 8 1
26 8 1
28 8 1
30 8 1
31 8 1
32 8 1
33 8 1
37 8 1
39 8 1
42 8 1
48 8 1
57 8 1
58 8 1
59 8 1
60 8 1
63 8 1
65 8 1
66 8 1
67 8 1
68 8 1
69 8 1
70 8 1
71 8 1
72 8 1
76 8 1
78 8 1
79 8 1
81 8 1
82 8 1
84 8 1
85 8 1
86 8 1
89 8 1
91 8 1
92 8 1
94 8 1
95 8 1
1 9 1
2 9 1
3 9 1
4 9 1
5 9 1
9 9 1
10 9 1
13 9 1
14 9 1
16 9 1
20 9 1
22 9 1
23 9 1
25 9 1
26 9 1
27 9 1
28 9 1
33 9 1
36 9 1
48 9 1
50 9 1
54 9 1
56 9 1
57 9 1
61 9 1
64 9 1
67 9 1
68 9 1
71 9 1
72 9 1
73 9 1
74 9 1
75 9 1
76 9 1
77 9 1
79 9 1
82 9 1
85 9 1
86 9 1
87 9 1
88 9 1
90 9 1
91 9 1
93 9 1
94 9 1
95 9 1
98 9 1
1 10 1
2 10 1
3 10 1
4 10 1
6 10 1
8 10 1
9 10 1
11 10 1
12 10 1
13 10 1
16 10 1
19 10 1
20 10 1
21 10 1
24 10 1
25 10 1
27 10 1
30 10 1
33 10 1
34 10 1
36 10 1
39 10 1
40 10 1
49 10 1
50 10 1
53 10 1
54 10 1
55 10 1
56 10 1
58 10 1
59 10 1
60 10 1
62 10 1
63 10 1
64 10 1
69 10 1
74 10 1
75 10 1
77 10 1
78 10 1
79 10 1
83 10 1
84 10 1
85 10 1
86 10 1
87 10 1
89 10 1
90 10 1
92 10 1
94 10 1
95 10 1
98 10 1
1 11 1
5 11 1
6 11 1
9 11 1
11 11 1
12 11 1
15 11 1
16 11 1
18 11 1
19 11 1
21 11 1
22 11 1
23 11 1
24 11 1
28 11 1
29 11 1
32 11 1
33 11 1
34 11 1
35 11 1
36 11 1
39 11 1
40 11 1
41 11 1
42 11 1
51 11 1
53 11 1
55 11 1
58 11 1
65 11 1
66 11 1
67 11 1
69 11 1
70 11 1
71 11 1
73 11 1
75 11 1
76 11 1
77 11 1
78 11 1
80 11 1
82 11 1
83 11 1
84 11 1
85 11 1
87 11 1
89 11 1
91 11 1
94 11 1
95 11 1
98 11 1
2 12 1
3 12 1
6 12 1
11 12 1
12 12 1
14 12 1
15 12 1
17 12 1
18 12 1
19 12 1
20 12 1
22 12 1
23 12 1
26 12 1
27 12 1
29 12 1
30 12 1
32 12 1
34 12 1
37 12 1
41 12 1
42 12 1
50 12 1
51 12 1
57 12 1
60 12 1
61 12 1
63 12 1
64 12 1
66 12 1
68 12 1
70 12 1
72 12 1
73 12 1
74 12 1
76 12 1
78 12 1
79 12 1
81 12 1
82 12 1
83 12 1
84 12 1
87 12 1
90 12 1
91 12 1
92 12 1
95 12 1
98 12 1
1 13 1
3 13 1
5 13 1
6 13 1
7 13 1
14 13 1
15 13 1
17 13 1
20 13 1
21 13 1
23 13 1
25 13 1
30 13 1
31 13 1
32 13 1
35 13 1
36 13 1
37 13 1
42 13 1
48 13 1
49 13 1
50 13 1
53 13 1
54 13 1
55 13 1
56 13 1
57 13 1
58 13 1
59 13 1
60 13 1
61 13 1
62 13 1
64 13 1
65 13 1
67 13 1
72 13 1
76 13 1
77 13 1
79 13 1
82 13 1
89 13 1
90 13 1
91 13 1
94 13 1
95 13 1
1 14 1
2 14 1
4 14 1
5 14 1
7 14 1
9 14 1
10 14 1
11 14 1
13 14 1
14 14 1
15 14 1
20 14 1
21 14 1
24 14 1
26 14 1
28 14 1
29 14 1
30 14 1
31 14 1
34 14 1
48 14 1
51 14 1
53 14 1
54 14 1
58 14 1
62 14 1
66 14 1
68 14 1
69 14 1
71 14 1
75 14 1
77 14 1
79 14 1
83 14 1
84 14 1
86 14 1
88 14 1
89 14 1
90 14 1
91 14 1
94 14 1
98 14 1
2 15 1
5 15 1
8 15 1
10 15 1
11 15 1
13 15 1
19 15 1
21 15 1
22 15 1
26 15 1
27 15 1
28 15 1
30 15 1
31 15 1
32 15 1
33 15 1
36 15 1
39 15 1
40 15 1
50 15 1
51 15 1
56 15 1
57 15 1
60 15 1
63 15 1
65 15 1
69 15 1
70 15 1
71 15 1
72 15 1
73 15 1
74 15 1
77 15 1
78 15 1
80 15 1
82 15 1
83 15 1
84 15 1
85 15 1
88 15 1
89 15 1
90 15 1
92 15 1
94 15 1
95 15 1
5 16 1
6 16 1
7 16 1
8 16 1
9 16 1
10 16 1
13 16 1
16 16 1
18 16 1
19 16 1
23 16 1
27 16 1
34 16 1
36 16 1
39 16 1
41 16 1
42 16 1
50 16 1
53 16 1
54 16 1
55 16 1
56 16 1
59 16 1
60 16 1
61 16 1
64 16 1
65 16 1
66 16 1
67 16 1
68 16 1
73 16 1
74 16 1
76 16 1
81 16 1
82 16 1
83 16 1
84 16 1
87 16 1
88 16 1
89 16 1
92 16 1
94 16 1
95 16 1
2 17 1
3 17 1
4 17 1
8 17 1
9 17 1
12 17 1
13 17 1
15 17 1
16 17 1
17 17 1
18 17 1
19 17 1
20 17 1
23 17 1
25 17 1
28 17 1
29 17 1
31 17 1
32 17 1
34 17 1
36 17 1
37 17 1
40 17 1
42 17 1
50 17 1
51 17 1
53 17 1
55 17 1
58 17 1
59 17 1
62 17 1
64 17 1
68 17 1
69 17 1
70 17 1
72 17 1
75 17 1
77 17 1
79 17 1
81 17 1
82 17 1
92 17 1
93 17 1
95 17 1
1 18 1
3 18 1
4 18 1
6 18 1
10 18 1
12 18 1
17 18 1
18 18 1
20 18 1
21 18 1
23 18 1
24 18 1
25 18 1
26 18 1
27 18 1
28 18 1
29 18 1
31 18 1
32 18 1
33 18 1
34 18 1
35 18 1
36 18 1
41 18 1
42 18 1
48 18 1
49 18 1
50 18 1
51 18 1
53 18 1
57 18 1
58 18 1
61 18 1
63 18 1
65 18 1
71 18 1
73 18 1
77 18 1
78 18 1
83 18 1
86 18 1
88 18 1
91 18 1
92 18 1
93 18 1
95 18 1
98 18 1
1 19 1
4 19 1
6 19 1
7 19 1
8 19 1
10 19 1
11 19 1
14 19 1
15 19 1
16 19 1
17 19 1
18 19 1
20 19 1
21 19 1
22 19 1
24 19 1
27 19 1
28 19 1
30 19 1
32 19 1
33 19 1
34 19 1
35 19 1
37 19 1
49 19 1
51 19 1
53 19 1
54 19 1
56 19 1
57 19 1
60 19 1
61 19 1
62 19 1
63 19 1
64 19 1
65 19 1
66 19 1
67 19 1
68 19 1
69 19 1
70 19 1
74 19 1
76 19 1
77 19 1
80 19 1
81 19 1
83 19 1
84 19 1
85 19 1
88 19 1
90 19 1
93 19 1
98 19 1
2 20 1
5 20 1
7 20 1
8 20 1
9 20 1
11 20 1
12 20 1
13 20 1
14 20 1
15 20 1
17 20 1
21 20 1
22 20 1
27 20 1
29 20 1
32 20 1
33 20 1
35 20 1
39 20 1
42 20 1
48 20 1
49 20 1
51 20 1
54 20 1
55 20 1
56 20 1
58 20 1
59 20 1
60 20 1
62 20 1
67 20 1
68 20 1
70 20 1
71 20 1
72 20 1
73 20 1
79 20 1
80 20 1
81 20 1
82 20 1
83 20 1
87 20 1
88 20 1
89 20 1
92 20 1
94 20 1
98 20 1
29 21 1
74 21 1
49 22 1
50 23 1
100 23 1
53 24 1
51 25 1
94 25 1
75 26 1
78 27 1
95 27 1
76 28 1
79 29 1
81 30 1
84 31 1
82 32 1
80 33 1
77 34 1
83 35 1
86 36 1
85 37 1
87 38 1
88 39 1
91 40 1
90 41 1
89 42 1
92 43 1
98 44 1
2 63 1
3 65 1
13 65 1
15 65 1
16 65 1
17 65 1
18 65 1
19 65 1
23 65 1
25 65 1
26 65 1
27 65 1
28 65 1
29 65 1
51 65 1
55 65 1
61 65 1
63 65 1
67 65 1
68 65 1
72 65 1
73 65 1
74 65 1
80 65 1
81 65 1
82 65 1
84 65 1
85 65 1
86 65 1
87 65 1
88 65 1
91 65 1
92 65 1
93 65 1
95 65 1
96 65 1
1 66 1
9 66 1
12 66 1
13 66 1
14 66 1
15 66 1
18 66 1
20 66 1
24 66 1
25 66 1
28 66 1
51 66 1
56 66 1
61 66 1
62 66 1
63 66 1
65 66 1
66 66 1
68 66 1
70 66 1
71 66 1
72 66 1
73 66 1
74 66 1
75 66 1
77 66 1
81 66 1
86 66 1
90 66 1
92 66 1
93 66 1
94 66 1
96 66 1
99 66 1
100 66 1
7 67 1
11 67 1
14 67 1
15 67 1
19 67 1
21 67 1
22 67 1
23 67 1
24 67 1
25 67 1
26 67 1
28 67 1
29 67 1
51 67 1
57 67 1
61 67 1
62 67 1
63 67 1
64 67 1
66 67 1
69 67 1
70 67 1
71 67 1
73 67 1
75 67 1
78 67 1
80 67 1
81 67 1
82 67 1
83 67 1
86 67 1
87 67 1
88 67 1
89 67 1
91 67 1
92 67 1
94 67 1
97 67 1
100 67 1
4 68 1
6 68 1
9 68 1
13 68 1
15 68 1
17 68 1
19 68 1
20 68 1
22 68 1
24 68 1
26 68 1
49 68 1
51 68 1
54 68 1
55 68 1
58 68 1
61 68 1
62 68 1
63 68 1
64 68 1
68 68 1
69 68 1
71 68 1
75 68 1
76 68 1
77 68 1
78 68 1
81 68 1
82 68 1
87 68 1
90 68 1
93 68 1
95 68 1
96 68 1
98 68 1
7 69 1
13 69 1
14 69 1
17 69 1
18 69 1
21 69 1
22 69 1
25 69 1
26 69 1
27 69 1
33 69 1
50 69 1
51 69 1
55 69 1
56 69 1
58 69 1
59 69 1
62 69 1
63 69 1
64 69 1
66 69 1
68 69 1
72 69 1
75 69 1
76 69 1
78 69 1
79 69 1
81 69 1
82 69 1
83 69 1
85 69 1
86 69 1
87 69 1
89 69 1
91 69 1
92 69 1
95 69 1
96 69 1
98 69 1
99 69 1
6 70 1
13 70 1
14 70 1
15 70 1
16 70 1
23 70 1
24 70 1
27 70 1
31 70 1
49 70 1
51 70 1
53 70 1
55 70 1
56 70 1
57 70 1
58 70 1
59 70 1
60 70 1
61 70 1
63 70 1
64 70 1
66 70 1
68 70 1
70 70 1
73 70 1
74 70 1
75 70 1
76 70 1
78 70 1
79 70 1
82 70 1
90 70 1
91 70 1
92 70 1
93 70 1
94 70 1
97 70 1
98 70 1
100 70 1
10 71 1
12 71 1
13 71 1
14 71 1
17 71 1
19 71 1
20 71 1
22 71 1
23 71 1
25 71 1
27 71 1
28 71 1
29 71 1
50 71 1
54 71 1
56 71 1
57 71 1
58 71 1
59 71 1
60 71 1
61 71 1
62 71 1
66 71 1
68 71 1
69 71 1
71 71 1
73 71 1
74 71 1
75 71 1
76 71 1
78 71 1
79 71 1
82 71 1
84 71 1
85 71 1
86 71 1
87 71 1
88 71 1
89 71 1
90 71 1
91 71 1
96 71 1
8 72 1
9 72 1
14 72 1
15 72 1
16 72 1
17 72 1
20 72 1
21 72 1
24 72 1
25 72 1
29 72 1
49 72 1
51 72 1
53 72 1
54 72 1
57 72 1
59 72 1
60 72 1
62 72 1
64 72 1
66 72 1
67 72 1
68 72 1
71 72 1
76 72 1
78 72 1
79 72 1
84 72 1
86 72 1
89 72 1
90 72 1
92 72 1
94 72 1
95 72 1
96 72 1
98 72 1
99 72 1
7 73 1
9 73 1
12 73 1
13 73 1
15 73 1
17 73 1
21 73 1
22 73 1
23 73 1
24 73 1
26 73 1
27 73 1
28 73 1
29 73 1
30 73 1
49 73 1
50 73 1
54 73 1
55 73 1
58 73 1
60 73 1
64 73 1
65 73 1
66 73 1
67 73 1
68 73 1
73 73 1
75 73 1
76 73 1
79 73 1
80 73 1
84 73 1
86 73 1
87 73 1
88 73 1
89 73 1
91 73 1
93 73 1
94 73 1
97 73 1
100 73 1
5 74 1
6 74 1
7 74 1
9 74 1
14 74 1
15 74 1
17 74 1
18 74 1
20 74 1
22 74 1
23 74 1
49 74 1
50 74 1
51 74 1
53 74 1
55 74 1
56 74 1
58 74 1
59 74 1
65 74 1
66 74 1
67 74 1
71 74 1
73 74 1
74 74 1
77 74 1
78 74 1
79 74 1
80 74 1
84 74 1
86 74 1
87 74 1
90 74 1
92 74 1
95 74 1
96 74 1
6 75 1
7 75 1
13 75 1
20 75 1
21 75 1
23 75 1
25 75 1
26 75 1
27 75 1
29 75 1
35 75 1
50 75 1
53 75 1
56 75 1
57 75 1
59 75 1
60 75 1
61 75 1
63 75 1
65 75 1
67 75 1
71 75 1
73 75 1
75 75 1
76 75 1
77 75 1
80 75 1
83 75 1
84 75 1
86 75 1
87 75 1
89 75 1
91 75 1
93 75 1
95 75 1
99 75 1
6 76 1
9 76 1
13 76 1
14 76 1
16 76 1
17 76 1
18 76 1
19 76 1
20 76 1
21 76 1
23 76 1
24 76 1
27 76 1
28 76 1
36 76 1
49 76 1
53 76 1
54 76 1
55 76 1
57 76 1
60 76 1
61 76 1
62 76 1
65 76 1
71 76 1
72 76 1
73 76 1
77 76 1
78 76 1
79 76 1
80 76 1
81 76 1
83 76 1
84 76 1
87 76 1
90 76 1
91 76 1
94 76 1
96 76 1
97 76 1
7 77 1
12 77 1
13 77 1
14 77 1
16 77 1
20 77 1
21 77 1
22 77 1
28 77 1
29 77 1
34 77 1
50 77 1
54 77 1
55 77 1
56 77 1
62 77 1
64 77 1
67 77 1
70 77 1
71 77 1
72 77 1
73 77 1
76 77 1
77 77 1
80 77 1
83 77 1
85 77 1
87 77 1
89 77 1
90 77 1
91 77 1
92 77 1
94 77 1
96 77 1
98 77 1
99 77 1
6 78 1
9 78 1
12 78 1
14 78 1
15 78 1
16 78 1
17 78 1
19 78 1
21 78 1
23 78 1
26 78 1
29 78 1
32 78 1
49 78 1
51 78 1
53 78 1
55 78 1
56 78 1
57 78 1
58 78 1
63 78 1
64 78 1
65 78 1
67 78 1
68 78 1
69 78 1
70 78 1
71 78 1
72 78 1
73 78 1
77 78 1
79 78 1
80 78 1
81 78 1
82 78 1
83 78 1
84 78 1
85 78 1
89 78 1
90 78 1
91 78 1
93 78 1
94 78 1
95 78 1
97 78 1
98 78 1
7 79 1
9 79 1
12 79 1
17 79 1
20 79 1
26 79 1
27 79 1
28 79 1
40 79 1
49 79 1
50 79 1
54 79 1
55 79 1
56 79 1
57 79 1
58 79 1
59 79 1
61 79 1
63 79 1
65 79 1
66 79 1
69 79 1
70 79 1
71 79 1
72 79 1
75 79 1
77 79 1
83 79 1
85 79 1
88 79 1
89 79 1
90 79 1
91 79 1
92 79 1
95 79 1
6 80 1
7 80 1
15 80 1
16 80 1
17 80 1
18 80 1
21 80 1
23 80 1
25 80 1
28 80 1
41 80 1
49 80 1
50 80 1
51 80 1
53 80 1
54 80 1
55 80 1
56 80 1
57 80 1
59 80 1
60 80 1
62 80 1
63 80 1
69 80 1
70 80 1
78 80 1
80 80 1
81 80 1
82 80 1
83 80 1
84 80 1
85 80 1
88 80 1
89 80 1
90 80 1
93 80 1
95 80 1
96 80 1
98 80 1
99 80 1
100 80 1
6 81 1
12 81 1
13 81 1
18 81 1
20 81 1
23 81 1
24 81 1
26 81 1
28 81 1
29 81 1
37 81 1
49 81 1
50 81 1
53 81 1
54 81 1
55 81 1
56 81 1
57 81 1
60 81 1
64 81 1
68 81 1
69 81 1
72 81 1
74 81 1
75 81 1
76 81 1
77 81 1
81 81 1
85 81 1
88 81 1
89 81 1
93 81 1
94 81 1
97 81 1
99 81 1
9 82 1
14 82 1
16 82 1
18 82 1
19 82 1
20 82 1
21 82 1
22 82 1
23 82 1
25 82 1
26 82 1
28 82 1
48 82 1
49 82 1
50 82 1
53 82 1
54 82 1
56 82 1
57 82 1
58 82 1
66 82 1
67 82 1
68 82 1
70 82 1
72 82 1
74 82 1
78 82 1
79 82 1
80 82 1
81 82 1
82 82 1
83 82 1
85 82 1
86 82 1
88 82 1
92 82 1
93 82 1
94 82 1
96 82 1
97 82 1
98 82 1
100 82 1
7 83 1
12 83 1
13 83 1
15 83 1
16 83 1
19 83 1
20 83 1
21 83 1
24 83 1
26 83 1
42 83 1
50 83 1
53 83 1
54 83 1
57 83 1
59 83 1
63 83 1
65 83 1
66 83 1
67 83 1
68 83 1
69 83 1
70 83 1
73 83 1
74 83 1
76 83 1
77 83 1
82 83 1
88 83 1
93 83 1
95 83 1
96 83 1
98 83 1
99 83 1
100 83 1
6 84 1
12 84 1
14 84 1
15 84 1
17 84 1
18 84 1
19 84 1
21 84 1
22 84 1
26 84 1
27 84 1
28 84 1
39 84 1
53 84 1
54 84 1
60 84 1
63 84 1
65 84 1
66 84 1
69 84 1
71 84 1
74 84 1
79 84 1
81 84 1
82 84 1
83 84 1
84 84 1
85 84 1
86 84 1
87 84 1
88 84 1
94 84 1
95 84 1
96 84 1
97 84 1
100 84 1
38 85 1
1 86 1
2 86 1
3 86 1
4 86 1
5 86 1
6 86 1
15 86 1
16 86 1
18 86 1
21 86 1
23 86 1
24 86 1
25 86 1
26 86 1
29 86 1
30 86 1
31 86 1
33 86 1
37 86 1
38 86 1
41 86 1
42 86 1
43 86 1
44 86 1
49 86 1
50 86 1
52 86 1
53 86 1
58 86 1
59 86 1
60 86 1
63 86 1
64 86 1
67 86 1
69 86 1
70 86 1
72 86 1
74 86 1
75 86 1
76 86 1
77 86 1
78 86 1
84 86 1
85 86 1
87 86 1
88 86 1
91 86 1
92 86 1
95 86 1
97 86 1
98 86 1
100 86 1
2 87 1
3 87 1
4 87 1
6 87 1
9 87 1
10 87 1
11 87 1
12 87 1
17 87 1
18 87 1
20 87 1
21 87 1
22 87 1
23 87 1
26 87 1
30 87 1
35 87 1
38 87 1
39 87 1
41 87 1
42 87 1
43 87 1
48 87 1
49 87 1
51 87 1
52 87 1
55 87 1
64 87 1
65 87 1
72 87 1
73 87 1
74 87 1
75 87 1
77 87 1
79 87 1
82 87 1
83 87 1
84 87 1
85 87 1
90 87 1
92 87 1
93 87 1
94 87 1
97 87 1
2 88 1
3 88 1
6 88 1
7 88 1
8 88 1
13 88 1
16 88 1
17 88 1
18 88 1
19 88 1
20 88 1
23 88 1
24 88 1
26 88 1
28 88 1
30 88 1
31 88 1
36 88 1
38 88 1
39 88 1
41 88 1
43 88 1
49 88 1
52 88 1
53 88 1
55 88 1
56 88 1
59 88 1
60 88 1
63 88 1
64 88 1
67 88 1
68 88 1
69 88 1
71 88 1
72 88 1
74 88 1
76 88 1
77 88 1
80 88 1
81 88 1
82 88 1
83 88 1
84 88 1
85 88 1
86 88 1
88 88 1
89 88 1
91 88 1
93 88 1
96 88 1
97 88 1
98 88 1
100 88 1
2 89 1
4 89 1
10 89 1
12 89 1
14 89 1
16 89 1
17 89 1
18 89 1
19 89 1
20 89 1
22 89 1
24 89 1
25 89 1
26 89 1
27 89 1
31 89 1
33 89 1
34 89 1
38 89 1
41 89 1
42 89 1
43 89 1
46 89 1
51 89 1
52 89 1
53 89 1
55 89 1
56 89 1
57 89 1
59 89 1
64 89 1
65 89 1
66 89 1
69 89 1
72 89 1
73 89 1
75 89 1
76 89 1
78 89 1
79 89 1
80 89 1
82 89 1
83 89 1
86 89 1
88 89 1
90 89 1
94 89 1
95 89 1
96 89 1
97 89 1
98 89 1
1 90 1
2 90 1
4 90 1
5 90 1
6 90 1
8 90 1
10 90 1
12 90 1
13 90 1
15 90 1
16 90 1
17 90 1
19 90 1
22 90 1
25 90 1
28 90 1
30 90 1
32 90 1
38 90 1
39 90 1
41 90 1
42 90 1
43 90 1
49 90 1
50 90 1
51 90 1
53 90 1
54 90 1
56 90 1
57 90 1
59 90 1
63 90 1
64 90 1
67 90 1
68 90 1
69 90 1
71 90 1
73 90 1
74 90 1
79 90 1
80 90 1
81 90 1
84 90 1
86 90 1
87 90 1
88 90 1
89 90 1
93 90 1
96 90 1
97 90 1
99 90 1
100 90 1
1 91 1
2 91 1
3 91 1
4 91 1
6 91 1
8 91 1
11 91 1
12 91 1
13 91 1
14 91 1
18 91 1
19 91 1
21 91 1
25 91 1
26 91 1
27 91 1
28 91 1
29 91 1
31 91 1
35 91 1
38 91 1
39 91 1
40 91 1
41 91 1
42 91 1
43 91 1
51 91 1
52 91 1
54 91 1
55 91 1
57 91 1
59 91 1
61 91 1
63 91 1
64 91 1
65 91 1
66 91 1
69 91 1
70 91 1
71 91 1
72 91 1
73 91 1
76 91 1
78 91 1
81 91 1
82 91 1
87 91 1
92 91 1
93 91 1
95 91 1
96 91 1
99 91 1
5 92 1
6 92 1
9 92 1
10 92 1
11 92 1
13 92 1
14 92 1
16 92 1
17 92 1
21 92 1
27 92 1
31 92 1
36 92 1
39 92 1
42 92 1
43 92 1
49 92 1
50 92 1
52 92 1
53 92 1
54 92 1
56 92 1
59 92 1
61 92 1
62 92 1
63 92 1
64 92 1
68 92 1
71 92 1
73 92 1
77 92 1
78 92 1
79 92 1
80 92 1
85 92 1
87 92 1
91 92 1
92 92 1
93 92 1
94 92 1
96 92 1
99 92 1
100 92 1
1 93 1
5 93 1
6 93 1
7 93 1
8 93 1
10 93 1
12 93 1
14 93 1
16 93 1
19 93 1
21 93 1
23 93 1
24 93 1
29 93 1
30 93 1
31 93 1
33 93 1
34 93 1
35 93 1
37 93 1
39 93 1
41 93 1
42 93 1
43 93 1
47 93 1
49 93 1
51 93 1
52 93 1
57 93 1
59 93 1
61 93 1
62 93 1
63 93 1
66 93 1
69 93 1
70 93 1
71 93 1
72 93 1
75 93 1
78 93 1
81 93 1
83 93 1
84 93 1
85 93 1
90 93 1
91 93 1
93 93 1
94 93 1
96 93 1
99 93 1
1 94 1
2 94 1
4 94 1
8 94 1
9 94 1
10 94 1
11 94 1
12 94 1
13 94 1
16 94 1
20 94 1
21 94 1
22 94 1
24 94 1
26 94 1
29 94 1
32 94 1
33 94 1
35 94 1
36 94 1
38 94 1
39 94 1
41 94 1
42 94 1
43 94 1
45 94 1
46 94 1
47 94 1
48 94 1
49 94 1
52 94 1
53 94 1
54 94 1
58 94 1
59 94 1
62 94 1
63 94 1
73 94 1
77 94 1
82 94 1
85 94 1
86 94 1
88 94 1
89 94 1
90 94 1
91 94 1
92 94 1
93 94 1
94 94 1
95 94 1
96 94 1
99 94 1
1 95 1
2 95 1
5 95 1
6 95 1
7 95 1
8 95 1
9 95 1
11 95 1
12 95 1
13 95 1
14 95 1
15 95 1
16 95 1
18 95 1
22 95 1
23 95 1
24 95 1
26 95 1
28 95 1
34 95 1
36 95 1
38 95 1
39 95 1
40 95 1
41 95 1
45 95 1
51 95 1
52 95 1
53 95 1
58 95 1
61 95 1
63 95 1
69 95 1
70 95 1
71 95 1
72 95 1
74 95 1
75 95 1
76 95 1
77 95 1
78 95 1
80 95 1
83 95 1
84 95 1
88 95 1
89 95 1
90 95 1
93 95 1
94 95 1
95 95 1
98 95 1
99 95 1
100 95 1
1 96 1
2 96 1
5 96 1
7 96 1
11 96 1
12 96 1
13 96 1
14 96 1
17 96 1
20 96 1
21 96 1
22 96 1
23 96 1
24 96 1
25 96 1
26 96 1
27 96 1
28 96 1
31 96 1
32 96 1
33 96 1
34 96 1
35 96 1
38 96 1
42 96 1
44 96 1
50 96 1
51 96 1
52 96 1
53 96 1
55 96 1
58 96 1
60 96 1
62 96 1
63 96 1
64 96 1
72 96 1
73 96 1
79 96 1
82 96 1
83 96 1
84 96 1
85 96 1
86 96 1
87 96 1
88 96 1
89 96 1
94 96 1
95 96 1
99 96 1
1 97 1
5 97 1
10 97 1
11 97 1
13 97 1
14 97 1
15 97 1
16 97 1
19 97 1
20 97 1
22 97 1
23 97 1
27 97 1
28 97 1
30 97 1
32 97 1
33 97 1
35 97 1
36 97 1
37 97 1
38 97 1
39 97 1
40 97 1
41 97 1
42 97 1
43 97 1
44 97 1
50 97 1
51 97 1
52 97 1
56 97 1
60 97 1
69 97 1
71 97 1
72 97 1
74 97 1
76 97 1
77 97 1
78 97 1
80 97 1
81 97 1
82 97 1
84 97 1
86 97 1
92 97 1
94 97 1
95 97 1
100 97 1
1 98 1
3 98 1
6 98 1
8 98 1
11 98 1
12 98 1
14 98 1
15 98 1
20 98 1
24 98 1
25 98 1
27 98 1
28 98 1
29 98 1
30 98 1
33 98 1
34 98 1
35 98 1
36 98 1
39 98 1
40 98 1
42 98 1
43 98 1
48 98 1
49 98 1
50 98 1
52 98 1
55 98 1
57 98 1
58 98 1
59 98 1
60 98 1
64 98 1
67 98 1
69 98 1
72 98 1
73 98 1
78 98 1
79 98 1
80 98 1
82 98 1
83 98 1
87 98 1
88 98 1
91 98 1
92 98 1
95 98 1
96 98 1
97 98 1
6 99 1
9 99 1
11 99 1
13 99 1
22 99 1
23 99 1
25 99 1
27 99 1
29 99 1
32 99 1
33 99 1
34 99 1
36 99 1
37 99 1
38 99 1
39 99 1
43 99 1
47 99 1
49 99 1
52 99 1
54 99 1
56 99 1
64 99 1
65 99 1
67 99 1
69 99 1
71 99 1
72 99 1
73 99 1
74 99 1
75 99 1
78 99 1
80 99 1
81 99 1
84 99 1
85 99 1
86 99 1
87 99 1
90 99 1
94 99 1
95 99 1
96 99 1
97 99 1
1 100 1
5 100 1
6 100 1
7 100 1
9 100 1
14 100 1
16 100 1
18 100 1
20 100 1
21 100 1
23 100 1
25 100 1
28 100 1
29 100 1
30 100 1
32 100 1
33 100 1
34 100 1
37 100 1
38 100 1
40 100 1
41 100 1
42 100 1
43 100 1
45 100 1
48 100 1
49 100 1
53 100 1
55 100 1
57 100 1
59 100 1
60 100 1
61 100 1
63 100 1
64 100 1
65 100 1
67 100 1
68 100 1
69 100 1
71 100 1
72 100 1
73 100 1
75 100 1
82 100 1
89 100 1
91 100 1
92 100 1
93 100 1
94 100 1
97 100 1
98 100 1
99 100 1
1 101 1
2 101 1
4 101 1
7 101 1
9 101 1
11 101 1
12 101 1
16 101 1
17 101 1
20 101 1
23 101 1
26 101 1
27 101 1
29 101 1
30 101 1
32 101 1
33 101 1
35 101 1
38 101 1
39 101 1
40 101 1
48 101 1
51 101 1
53 101 1
54 101 1
56 101 1
59 101 1
62 101 1
64 101 1
65 101 1
66 101 1
68 101 1
69 101 1
71 101 1
72 101 1
73 101 1
75 101 1
76 101 1
77 101 1
80 101 1
84 101 1
85 101 1
87 101 1
88 101 1
90 101 1
91 101 1
92 101 1
95 101 1
98 101 1
99 101 1
1 102 1
2 102 1
3 102 1
7 102 1
9 102 1
11 102 1
12 102 1
13 102 1
15 102 1
16 102 1
18 102 1
19 102 1
20 102 1
23 102 1
24 102 1
25 102 1
30 102 1
36 102 1
37 102 1
38 102 1
40 102 1
43 102 1
44 102 1
49 102 1
50 102 1
51 102 1
52 102 1
53 102 1
57 102 1
59 102 1
61 102 1
63 102 1
66 102 1
67 102 1
68 102 1
69 102 1
71 102 1
73 102 1
76 102 1
79 102 1
82 102 1
83 102 1
84 102 1
85 102 1
89 102 1
90 102 1
95 102 1
96 102 1
98 102 1
7 103 1
11 103 1
12 103 1
13 103 1
14 103 1
15 103 1
17 103 1
18 103 1
20 103 1
22 103 1
25 103 1
26 103 1
29 103 1
30 103 1
31 103 1
33 103 1
34 103 1
37 103 1
42 103 1
43 103 1
48 103 1
51 103 1
52 103 1
54 103 1
58 103 1
59 103 1
62 103 1
63 103 1
64 103 1
65 103 1
66 103 1
69 103 1
70 103 1
71 103 1
73 103 1
76 103 1
77 103 1
78 103 1
79 103 1
80 103 1
81 103 1
82 103 1
84 103 1
85 103 1
86 103 1
88 103 1
89 103 1
91 103 1
92 103 1
93 103 1
94 103 1
96 103 1
97 103 1
100 103 1
1 104 1
3 104 1
9 104 1
10 104 1
13 104 1
14 104 1
15 104 1
17 104 1
19 104 1
23 104 1
25 104 1
26 104 1
28 104 1
30 104 1
32 104 1
33 104 1
37 104 1
38 104 1
39 104 1
41 104 1
43 104 1
46 104 1
47 104 1
48 104 1
50 104 1
52 104 1
53 104 1
61 104 1
63 104 1
68 104 1
70 104 1
71 104 1
73 104 1
78 104 1
79 104 1
80 104 1
81 104 1
82 104 1
83 104 1
88 104 1
90 104 1
97 104 1
98 104 1
99 104 1
100 104 1
2 105 1
3 105 1
4 105 1
6 105 1
7 105 1
8 105 1
11 105 1
14 105 1
15 105 1
19 105 1
20 105 1
21 105 1
25 105 1
26 105 1
27 105 1
30 105 1
33 105 1
38 105 1
40 105 1
41 105 1
43 105 1
45 105 1
46 105 1
48 105 1
49 105 1
50 105 1
51 105 1
52 105 1
58 105 1
59 105 1
60 105 1
62 105 1
63 105 1
64 105 1
66 105 1
70 105 1
71 105 1
72 105 1
75 105 1
78 105 1
80 105 1
81 105 1
85 105 1
86 105 1
87 105 1
88 105 1
89 105 1
94 105 1
95 105 1
99 105 1
2 106 1
3 106 1
4 106 1
6 106 1
7 106 1
9 106 1
13 106 1
14 106 1
16 106 1
18 106 1
19 106 1
25 106 1
26 106 1
28 106 1
29 106 1
30 106 1
31 106 1
35 106 1
36 106 1
39 106 1
40 106 1
42 106 1
49 106 1
50 106 1
56 106 1
57 106 1
59 106 1
60 106 1
61 106 1
63 106 1
64 106 1
65 106 1
66 106 1
69 106 1
70 106 1
71 106 1
75 106 1
77 106 1
80 106 1
81 106 1
84 106 1
86 106 1
88 106 1
91 106 1
93 106 1
95 106 1
1 107 1
4 107 1
5 107 1
10 107 1
12 107 1
13 107 1
15 107 1
16 107 1
17 107 1
19 107 1
23 107 1
24 107 1
25 107 1
26 107 1
27 107 1
28 107 1
30 107 1
31 107 1
33 107 1
34 107 1
35 107 1
40 107 1
41 107 1
42 107 1
49 107 1
53 107 1
54 107 1
56 107 1
58 107 1
59 107 1
61 107 1
62 107 1
64 107 1
65 107 1
66 107 1
67 107 1
68 107 1
70 107 1
71 107 1
72 107 1
73 107 1
74 107 1
75 107 1
78 107 1
80 107 1
81 107 1
82 107 1
83 107 1
85 107 1
86 107 1
88 107 1
90 107 1
92 107 1
93 107 1
3 108 1
4 108 1
5 108 1
6 108 1
7 108 1
8 108 1
9 108 1
10 108 1
11 108 1
12 108 1
18 108 1
20 108 1
22 108 1
23 108 1
24 108 1
25 108 1
27 108 1
28 108 1
30 108 1
32 108 1
33 108 1
37 108 1
40 108 1
41 108 1
42 108 1
49 108 1
51 108 1
55 108 1
56 108 1
58 108 1
62 108 1
63 108 1
68 108 1
72 108 1
74 108 1
75 108 1
76 108 1
78 108 1
81 108 1
85 108 1
87 108 1
88 108 1
89 108 1
92 108 1
93 108 1
94 108 1
98 108 1
1 109 1
2 109 1
5 109 1
8 109 1
9 109 1
14 109 1
15 109 1
16 109 1
17 109 1
18 109 1
19 109 1
20 109 1
21 109 1
22 109 1
24 109 1
25 109 1
27 109 1
29 109 1
33 109 1
36 109 1
37 109 1
41 109 1
42 109 1
48 109 1
55 109 1
60 109 1
61 109 1
63 109 1
65 109 1
67 109 1
69 109 1
71 109 1
76 109 1
77 109 1
78 109 1
79 109 1
80 109 1
81 109 1
86 109 1
87 109 1
92 109 1
2 110 1
4 110 1
6 110 1
11 110 1
12 110 1
13 110 1
14 110 1
17 110 1
21 110 1
22 110 1
23 110 1
24 110 1
29 110 1
34 110 1
36 110 1
37 110 1
40 110 1
48 110 1
49 110 1
50 110 1
57 110 1
59 110 1
60 110 1
61 110 1
62 110 1
64 110 1
66 110 1
67 110 1
68 110 1
69 110 1
70 110 1
71 110 1
73 110 1
74 110 1
75 110 1
76 110 1
79 110 1
80 110 1
83 110 1
85 110 1
86 110 1
91 110 1
92 110 1
93 110 1
95 110 1
98 110 1
6 111 1
7 111 1
15 111 1
16 111 1
20 111 1
22 111 1
26 111 1
29 111 1
30 111 1
31 111 1
32 111 1
33 111 1
34 111 1
35 111 1
36 111 1
39 111 1
40 111 1
41 111 1
48 111 1
49 111 1
53 111 1
54 111 1
55 111 1
56 111 1
57 111 1
58 111 1
59 111 1
61 111 1
62 111 1
70 111 1
72 111 1
73 111 1
74 111 1
75 111 1
78 111 1
79 111 1
80 111 1
84 111 1
85 111 1
87 111 1
88 111 1
90 111 1
91 111 1
93 111 1
94 111 1
98 111 1
2 112 1
4 112 1
5 112 1
7 112 1
10 112 1
12 112 1
13 112 1
14 112 1
15 112 1
18 112 1
19 112 1
21 112 1
25 112 1
26 112 1
30 112 1
32 112 1
34 112 1
35 112 1
37 112 1
39 112 1
41 112 1
49 112 1
51 112 1
54 112 1
55 112 1
62 112 1
63 112 1
65 112 1
66 112 1
75 112 1
76 112 1
78 112 1
80 112 1
82 112 1
84 112 1
86 112 1
87 112 1
89 112 1
90 112 1
94 112 1
98 112 1
2 113 1
3 113 1
4 113 1
5 113 1
7 113 1
8 113 1
9 113 1
17 113 1
19 113 1
23 113 1
24 113 1
26 113 1
28 113 1
30 113 1
31 113 1
32 113 1
33 113 1
37 113 1
39 113 1
42 113 1
48 113 1
57 113 1
59 113 1
60 113 1
63 113 1
65 113 1
66 113 1
67 113 1
68 113 1
69 113 1
70 113 1
71 113 1
72 113 1
76 113 1
78 113 1
79 113 1
81 113 1
82 113 1
84 113 1
85 113 1
86 113 1
89 113 1
91 113 1
92 113 1
94 113 1
95 113 1
1 114 1
2 114 1
3 114 1
4 114 1
5 114 1
9 114 1
10 114 1
13 114 1
14 114 1
16 114 1
18 114 1
20 114 1
22 114 1
23 114 1
25 114 1
26 114 1
27 114 1
28 114 1
33 114 1
36 114 1
48 114 1
50 114 1
54 114 1
56 114 1
57 114 1
59 114 1
61 114 1
64 114 1
67 114 1
68 114 1
71 114 1
72 114 1
73 114 1
74 114 1
75 114 1
76 114 1
77 114 1
79 114 1
82 114 1
85 114 1
86 114 1
87 114 1
88 114 1
90 114 1
91 114 1
93 114 1
94 114 1
95 114 1
98 114 1
1 115 1
2 115 1
3 115 1
4 115 1
6 115 1
8 115 1
9 115 1
11 115 1
12 115 1
13 115 1
16 115 1
17 115 1
19 115 1
20 115 1
21 115 1
24 115 1
25 115 1
27 115 1
30 115 1
33 115 1
34 115 1
36 115 1
39 115 1
40 115 1
49 115 1
50 115 1
53 115 1
54 115 1
55 115 1
56 115 1
58 115 1
59 115 1
62 115 1
63 115 1
64 115 1
69 115 1
74 115 1
75 115 1
77 115 1
78 115 1
79 115 1
83 115 1
84 115 1
85 115 1
86 115 1
87 115 1
89 115 1
90 115 1
92 115 1
94 115 1
95 115 1
98 115 1
1 116 1
5 116 1
6 116 1
9 116 1
11 116 1
12 116 1
15 116 1
16 116 1
18 116 1
21 116 1
22 116 1
23 116 1
24 116 1
28 116 1
29 116 1
32 116 1
33 116 1
34 116 1
35 116 1
36 116 1
39 116 1
40 116 1
41 116 1
42 116 1
51 116 1
53 116 1
55 116 1
58 116 1
63 116 1
65 116 1
66 116 1
67 116 1
69 116 1
70 116 1
71 116 1
73 116 1
75 116 1
76 116 1
77 116 1
78 116 1
80 116 1
82 116 1
83 116 1
84 116 1
85 116 1
87 116 1
89 116 1
91 116 1
94 116 1
95 116 1
98 116 1
2 117 1
3 117 1
6 117 1
11 117 1
12 117 1
14 117 1
15 117 1
17 117 1
18 117 1
19 117 1
20 117 1
22 117 1
26 117 1
27 117 1
29 117 1
30 117 1
32 117 1
34 117 1
37 117 1
41 117 1
42 117 1
50 117 1
51 117 1
57 117 1
60 117 1
61 117 1
63 117 1
64 117 1
66 117 1
67 117 1
68 117 1
70 117 1
72 117 1
73 117 1
74 117 1
76 117 1
78 117 1
79 117 1
81 117 1
82 117 1
83 117 1
84 117 1
87 117 1
90 117 1
91 117 1
92 117 1
95 117 1
98 117 1
1 118 1
3 118 1
5 118 1
6 118 1
7 118 1
14 118 1
15 118 1
17 118 1
21 118 1
23 118 1
25 118 1
30 118 1
31 118 1
32 118 1
35 118 1
36 118 1
37 118 1
42 118 1
48 118 1
49 118 1
50 118 1
53 118 1
54 118 1
55 118 1
56 118 1
57 118 1
58 118 1
59 118 1
60 118 1
61 118 1
62 118 1
64 118 1
67 118 1
72 118 1
76 118 1
77 118 1
79 118 1
82 118 1
89 118 1
90 118 1
91 118 1
94 118 1
95 118 1
1 119 1
2 119 1
4 119 1
5 119 1
7 119 1
9 119 1
10 119 1
11 119 1
13 119 1
14 119 1
15 119 1
20 119 1
24 119 1
26 119 1
28 119 1
29 119 1
30 119 1
31 119 1
34 119 1
48 119 1
51 119 1
53 119 1
54 119 1
58 119 1
62 119 1
66 119 1
69 119 1
71 119 1
75 119 1
77 119 1
79 119 1
83 119 1
84 119 1
86 119 1
88 119 1
89 119 1
90 119 1
91 119 1
94 119 1
98 119 1
2 120 1
5 120 1
8 120 1
10 120 1
11 120 1
13 120 1
19 120 1
21 120 1
22 120 1
25 120 1
26 120 1
27 120 1
28 120 1
30 120 1
31 120 1
32 120 1
33 120 1
36 120 1
39 120 1
40 120 1
50 120 1
51 120 1
56 120 1
57 120 1
60 120 1
63 120 1
65 120 1
66 120 1
69 120 1
70 120 1
71 120 1
72 120 1
73 120 1
74 120 1
77 120 1
78 120 1
80 120 1
82 120 1
83 120 1
84 120 1
85 120 1
88 120 1
89 120 1
90 120 1
92 120 1
94 120 1
95 120 1
5 121 1
6 121 1
7 121 1
8 121 1
9 121 1
10 121 1
13 121 1
16 121 1
18 121 1
19 121 1
23 121 1
24 121 1
27 121 1
34 121 1
36 121 1
39 121 1
41 121 1
42 121 1
50 121 1
53 121 1
54 121 1
55 121 1
56 121 1
59 121 1
60 121 1
61 121 1
64 121 1
65 121 1
66 121 1
67 121 1
68 121 1
72 121 1
73 121 1
74 121 1
76 121 1
81 121 1
82 121 1
83 121 1
84 121 1
87 121 1
88 121 1
89 121 1
92 121 1
94 121 1
95 121 1
2 122 1
3 122 1
4 122 1
8 122 1
9 122 1
12 122 1
13 122 1
15 122 1
16 122 1
17 122 1
18 122 1
19 122 1
20 122 1
22 122 1
23 122 1
25 122 1
28 122 1
29 122 1
31 122 1
32 122 1
34 122 1
36 122 1
37 122 1
40 122 1
42 122 1
50 122 1
51 122 1
53 122 1
55 122 1
58 122 1
59 122 1
62 122 1
64 122 1
68 122 1
69 122 1
72 122 1
75 122 1
77 122 1
79 122 1
81 122 1
82 122 1
92 122 1
93 122 1
95 122 1
1 123 1
3 123 1
4 123 1
6 123 1
10 123 1
12 123 1
17 123 1
18 123 1
20 123 1
21 123 1
23 123 1
24 123 1
25 123 1
26 123 1
27 123 1
29 123 1
31 123 1
32 123 1
33 123 1
34 123 1
35 123 1
36 123 1
41 123 1
42 123 1
48 123 1
49 123 1
50 123 1
51 123 1
53 123 1
57 123 1
58 123 1
61 123 1
63 123 1
65 123 1
69 123 1
71 123 1
73 123 1
77 123 1
78 123 1
83 123 1
86 123 1
88 123 1
91 123 1
92 123 1
93 123 1
95 123 1
98 123 1
1 124 1
4 124 1
6 124 1
7 124 1
8 124 1
10 124 1
11 124 1
14 124 1
15 124 1
16 124 1
17 124 1
18 124 1
20 124 1
21 124 1
22 124 1
24 124 1
28 124 1
30 124 1
32 124 1
33 124 1
34 124 1
35 124 1
37 124 1
49 124 1
51 124 1
53 124 1
54 124 1
56 124 1
57 124 1
60 124 1
61 124 1
62 124 1
63 124 1
64 124 1
65 124 1
66 124 1
67 124 1
68 124 1
69 124 1
70 124 1
73 124 1
74 124 1
76 124 1
77 124 1
80 124 1
81 124 1
83 124 1
84 124 1
85 124 1
88 124 1
90 124 1
93 124 1
98 124 1
2 125 1
5 125 1
7 125 1
8 125 1
9 125 1
11 125 1
12 125 1
13 125 1
14 125 1
15 125 1
17 125 1
21 125 1
22 125 1
26 125 1
27 125 1
29 125 1
32 125 1
33 125 1
35 125 1
39 125 1
42 125 1
48 125 1
49 125 1
51 125 1
54 125 1
55 125 1
56 125 1
58 125 1
59 125 1
60 125 1
62 125 1
67 125 1
68 125 1
70 125 1
72 125 1
73 125 1
79 125 1
80 125 1
81 125 1
82 125 1
83 125 1
87 125 1
88 125 1
89 125 1
92 125 1
94 125 1
98 125 1
2 168 1
3 170 1
1 171 1
11 172 1
4 173 1
33 174 1
31 175 1
10 176 1
8 177 1
30 178 1
5 179 1
35 180 1
36 181 1
34 182 1
32 183 1
40 184 1
41 185 1
37 186 1
48 187 1
42 188 1
39 189 1
38 190 1
47 191 1
45 192 1
43 193 1
44 194 1
52 198 1
46 202 1
9 211 1
7 212 1
6 213 1
15 214 1
16 215 1
12 216 1
13 217 1
14 218 1
18 219 1
17 220 1
19 221 1
23 222 1
20 223 1
21 224 1
25 225 1
24 226 1
22 227 1
28 228 1
27 229 1
26 230 1
29 231 1
49 232 1
50 233 1
53 234 1
51 235 1
75 236 1
78 237 1
76 238 1
79 239 1
81 240 1
84 241 1
82 242 1
80 243 1
77 244 1
83 245 1
86 246 1
85 247 1
87 248 1
88 249 1
91 250 1
90 251 1
89 252 1
92 253 1
93 275 1
55 316 1
56 317 1
57 318 1
54 319 1
61 320 1
62 321 1
64 322 1
58 323 1
59 324 1
60 325 1
63 326 1
67 327 1
65 328 1
68 329 1
66 330 1
72 331 1
70 332 1
69 333 1
73 334 1
71 335 1
74 336 1
94 340 1
95 342 1
98 359 1
1 401 1
2 401 1
3 401 1
11 401 1
33 401 1
35 401 1
40 401 1
41 401 1
47 401 1
48 401 1
49 401 1
50 401 1
75 401 1
79 401 1
83 401 1
84 401 1
85 401 1
87 401 1
88 401 1
91 401 1
92 401 1
2 402 1
3 402 1
4 402 1
31 402 1
33 402 1
35 402 1
36 402 1
37 402 1
38 402 1
40 402 1
42 402 1
45 402 1
47 402 1
48 402 1
49 402 1
53 402 1
75 402 1
78 402 1
79 402 1
81 402 1
82 402 1
83 402 1
84 402 1
85 402 1
86 402 1
90 402 1
92 402 1
95 402 1
2 403 1
3 403 1
10 403 1
11 403 1
31 403 1
34 403 1
35 403 1
36 403 1
39 403 1
40 403 1
42 403 1
43 403 1
45 403 1
49 403 1
51 403 1
75 403 1
76 403 1
78 403 1
79 403 1
80 403 1
81 403 1
82 403 1
83 403 1
86 403 1
88 403 1
89 403 1
91 403 1
95 403 1
98 403 1
3 404 1
4 404 1
8 404 1
10 404 1
11 404 1
32 404 1
33 404 1
34 404 1
35 404 1
36 404 1
39 404 1
40 404 1
43 404 1
44 404 1
46 404 1
47 404 1
48 404 1
52 404 1
76 404 1
77 404 1
78 404 1
80 404 1
81 404 1
83 404 1
86 404 1
87 404 1
88 404 1
90 404 1
93 404 1
95 404 1
98 404 1
2 405 1
4 405 1
8 405 1
11 405 1
30 405 1
31 405 1
32 405 1
34 405 1
35 405 1
36 405 1
42 405 1
44 405 1
45 405 1
46 405 1
47 405 1
48 405 1
49 405 1
50 405 1
52 405 1
75 405 1
76 405 1
77 405 1
86 405 1
87 405 1
89 405 1
92 405 1
94 405 1
95 405 1
98 405 1
1 406 1
2 406 1
4 406 1
5 406 1
10 406 1
11 406 1
30 406 1
32 406 1
34 406 1
35 406 1
36 406 1
39 406 1
41 406 1
42 406 1
43 406 1
45 406 1
46 406 1
47 406 1
48 406 1
52 406 1
53 406 1
75 406 1
78 406 1
84 406 1
87 406 1
91 406 1
92 406 1
94 406 1
95 406 1
1 407 1
3 407 1
4 407 1
5 407 1
8 407 1
32 407 1
34 407 1
36 407 1
37 407 1
39 407 1
41 407 1
42 407 1
43 407 1
44 407 1
45 407 1
46 407 1
47 407 1
48 407 1
49 407 1
50 407 1
51 407 1
52 407 1
75 407 1
76 407 1
78 407 1
79 407 1
82 407 1
83 407 1
84 407 1
85 407 1
87 407 1
90 407 1
91 407 1
92 407 1
30 408 1
32 408 1
34 408 1
37 408 1
38 408 1
39 408 1
41 408 1
42 408 1
43 408 1
44 408 1
45 408 1
47 408 1
49 408 1
53 408 1
76 408 1
78 408 1
80 408 1
81 408 1
82 408 1
83 408 1
84 408 1
85 408 1
86 408 1
89 408 1
90 408 1
91 408 1
93 408 1
1 409 1
5 409 1
11 409 1
32 409 1
33 409 1
35 409 1
37 409 1
38 409 1
39 409 1
41 409 1
43 409 1
44 409 1
45 409 1
51 409 1
75 409 1
76 409 1
77 409 1
80 409 1
82 409 1
83 409 1
86 409 1
88 409 1
89 409 1
90 409 1
91 409 1
93 409 1
95 409 1
1 410 1
2 410 1
4 410 1
31 410 1
33 410 1
36 410 1
37 410 1
38 410 1
41 410 1
43 410 1
44 410 1
50 410 1
52 410 1
77 410 1
78 410 1
80 410 1
84 410 1
86 410 1
87 410 1
88 410 1
89 410 1
90 410 1
93 410 1
95 410 1
1 411 1
10 411 1
31 411 1
34 411 1
35 411 1
37 411 1
38 411 1
40 411 1
41 411 1
44 411 1
50 411 1
53 411 1
75 411 1
76 411 1
77 411 1
79 411 1
82 411 1
84 411 1
87 411 1
89 411 1
92 411 1
93 411 1
95 411 1
98 411 1
1 412 1
2 412 1
3 412 1
8 412 1
10 412 1
32 412 1
33 412 1
35 412 1
36 412 1
37 412 1
38 412 1
40 412 1
46 412 1
50 412 1
51 412 1
53 412 1
75 412 1
78 412 1
80 412 1
81 412 1
82 412 1
84 412 1
85 412 1
87 412 1
91 412 1
92 412 1
93 412 1
95 412 1
2 413 1
3 413 1
8 413 1
30 413 1
31 413 1
33 413 1
34 413 1
35 413 1
36 413 1
46 413 1
49 413 1
50 413 1
51 413 1
53 413 1
76 413 1
77 413 1
78 413 1
79 413 1
80 413 1
82 413 1
83 413 1
85 413 1
90 413 1
91 413 1
94 413 1
95 413 1
3 414 1
5 414 1
10 414 1
11 414 1
30 414 1
31 414 1
32 414 1
33 414 1
34 414 1
35 414 1
36 414 1
40 414 1
41 414 1
47 414 1
48 414 1
49 414 1
51 414 1
53 414 1
76 414 1
77 414 1
80 414 1
81 414 1
84 414 1
85 414 1
86 414 1
88 414 1
89 414 1
90 414 1
91 414 1
93 414 1
94 414 1
95 414 1
2 415 1
3 415 1
4 415 1
5 415 1
8 415 1
10 415 1
11 415 1
31 415 1
32 415 1
33 415 1
34 415 1
36 415 1
37 415 1
42 415 1
45 415 1
46 415 1
47 415 1
48 415 1
51 415 1
77 415 1
82 415 1
88 415 1
89 415 1
90 415 1
92 415 1
93 415 1
94 415 1
98 415 1
3 416 1
4 416 1
8 416 1
10 416 1
11 416 1
30 416 1
31 416 1
32 416 1
34 416 1
39 416 1
41 416 1
42 416 1
43 416 1
45 416 1
46 416 1
47 416 1
50 416 1
52 416 1
79 416 1
80 416 1
84 416 1
85 416 1
87 416 1
88 416 1
89 416 1
94 416 1
98 416 1
3 417 1
4 417 1
5 417 1
8 417 1
10 417 1
11 417 1
30 417 1
32 417 1
35 417 1
37 417 1
38 417 1
39 417 1
41 417 1
43 417 1
44 417 1
45 417 1
46 417 1
47 417 1
48 417 1
50 417 1
52 417 1
53 417 1
75 417 1
77 417 1
79 417 1
81 417 1
82 417 1
83 417 1
84 417 1
85 417 1
92 417 1
93 417 1
98 417 1
2 418 1
4 418 1
5 418 1
8 418 1
11 418 1
30 418 1
36 418 1
37 418 1
38 418 1
41 418 1
42 418 1
43 418 1
44 418 1
45 418 1
46 418 1
49 418 1
50 418 1
51 418 1
52 418 1
53 418 1
75 418 1
78 418 1
79 418 1
80 418 1
81 418 1
82 418 1
85 418 1
86 418 1
88 418 1
91 418 1
92 418 1
93 418 1
1 419 1
2 419 1
4 419 1
5 419 1
11 419 1
30 419 1
34 419 1
37 419 1
38 419 1
39 419 1
40 419 1
41 419 1
43 419 1
44 419 1
46 419 1
49 419 1
51 419 1
52 419 1
53 419 1
76 419 1
77 419 1
78 419 1
79 419 1
80 419 1
81 419 1
83 419 1
88 419 1
90 419 1
93 419 1
94 419 1
95 419 1
98 419 1
1 420 1
3 420 1
4 420 1
5 420 1
32 420 1
37 420 1
38 420 1
40 420 1
44 420 1
49 420 1
51 420 1
52 420 1
76 420 1
77 420 1
81 420 1
85 420 1
86 420 1
87 420 1
88 420 1
89 420 1
92 420 1
93 420 1
94 420 1
95 420 1
98 420 1
96 421 1
99 423 1
97 424 1
100 443 1
13 485 1
15 485 1
16 485 1
17 485 1
18 485 1
19 485 1
23 485 1
25 485 1
26 485 1
27 485 1
28 485 1
29 485 1
51 485 1
55 485 1
61 485 1
63 485 1
67 485 1
68 485 1
72 485 1
73 485 1
74 485 1
80 485 1
81 485 1
82 485 1
84 485 1
85 485 1
86 485 1
87 485 1
88 485 1
91 485 1
92 485 1
95 485 1
96 485 1
9 486 1
12 486 1
13 486 1
14 486 1
15 486 1
18 486 1
20 486 1
24 486 1
25 486 1
28 486 1
51 486 1
56 486 1
61 486 1
62 486 1
63 486 1
65 486 1
66 486 1
68 486 1
70 486 1
71 486 1
72 486 1
73 486 1
74 486 1
75 486 1
77 486 1
81 486 1
86 486 1
90 486 1
92 486 1
93 486 1
94 486 1
96 486 1
99 486 1
100 486 1
7 487 1
14 487 1
15 487 1
19 487 1
21 487 1
22 487 1
23 487 1
24 487 1
25 487 1
26 487 1
28 487 1
29 487 1
51 487 1
57 487 1
61 487 1
62 487 1
63 487 1
64 487 1
66 487 1
69 487 1
70 487 1
71 487 1
73 487 1
75 487 1
78 487 1
80 487 1
81 487 1
82 487 1
83 487 1
86 487 1
87 487 1
88 487 1
89 487 1
91 487 1
92 487 1
94 487 1
97 487 1
100 487 1
6 488 1
9 488 1
13 488 1
15 488 1
17 488 1
19 488 1
20 488 1
22 488 1
24 488 1
26 488 1
49 488 1
51 488 1
54 488 1
55 488 1
58 488 1
61 488 1
62 488 1
63 488 1
64 488 1
68 488 1
69 488 1
71 488 1
75 488 1
76 488 1
77 488 1
78 488 1
81 488 1
82 488 1
87 488 1
90 488 1
93 488 1
95 488 1
96 488 1
98 488 1
7 489 1
13 489 1
14 489 1
17 489 1
18 489 1
21 489 1
22 489 1
25 489 1
26 489 1
27 489 1
50 489 1
51 489 1
55 489 1
56 489 1
58 489 1
59 489 1
62 489 1
63 489 1
64 489 1
66 489 1
68 489 1
72 489 1
75 489 1
76 489 1
78 489 1
79 489 1
81 489 1
82 489 1
83 489 1
85 489 1
86 489 1
87 489 1
89 489 1
91 489 1
92 489 1
95 489 1
96 489 1
98 489 1
99 489 1
6 490 1
13 490 1
14 490 1
15 490 1
16 490 1
23 490 1
24 490 1
27 490 1
49 490 1
51 490 1
53 490 1
55 490 1
56 490 1
57 490 1
58 490 1
59 490 1
60 490 1
61 490 1
63 490 1
64 490 1
66 490 1
68 490 1
70 490 1
73 490 1
74 490 1
75 490 1
76 490 1
78 490 1
79 490 1
82 490 1
90 490 1
91 490 1
92 490 1
93 490 1
94 490 1
97 490 1
98 490 1
100 490 1
12 491 1
13 491 1
14 491 1
17 491 1
19 491 1
20 491 1
22 491 1
23 491 1
25 491 1
27 491 1
28 491 1
29 491 1
50 491 1
54 491 1
56 491 1
57 491 1
58 491 1
59 491 1
60 491 1
61 491 1
62 491 1
66 491 1
68 491 1
69 491 1
71 491 1
73 491 1
74 491 1
75 491 1
76 491 1
78 491 1
79 491 1
82 491 1
84 491 1
85 491 1
86 491 1
87 491 1
88 491 1
89 491 1
90 491 1
91 491 1
96 491 1
9 492 1
14 492 1
15 492 1
16 492 1
17 492 1
20 492 1
21 492 1
24 492 1
25 492 1
29 492 1
49 492 1
51 492 1
53 492 1
54 492 1
57 492 1
59 492 1
60 492 1
62 492 1
64 492 1
66 492 1
67 492 1
68 492 1
71 492 1
76 492 1
78 492 1
79 492 1
84 492 1
86 492 1
89 492 1
90 492 1
92 492 1
94 492 1
95 492 1
96 492 1
98 492 1
99 492 1
7 493 1
9 493 1
12 493 1
13 493 1
15 493 1
17 493 1
21 493 1
22 493 1
23 493 1
24 493 1
26 493 1
27 493 1
28 493 1
29 493 1
49 493 1
50 493 1
54 493 1
55 493 1
58 493 1
60 493 1
64 493 1
65 493 1
66 493 1
67 493 1
68 493 1
73 493 1
75 493 1
76 493 1
79 493 1
80 493 1
84 493 1
86 493 1
87 493 1
88 493 1
89 493 1
91 493 1
93 493 1
94 493 1
97 493 1
100 493 1
6 494 1
7 494 1
9 494 1
14 494 1
15 494 1
17 494 1
18 494 1
20 494 1
22 494 1
23 494 1
49 494 1
50 494 1
51 494 1
53 494 1
55 494 1
56 494 1
58 494 1
59 494 1
65 494 1
66 494 1
67 494 1
71 494 1
73 494 1
74 494 1
77 494 1
78 494 1
79 494 1
80 494 1
84 494 1
86 494 1
87 494 1
90 494 1
92 494 1
95 494 1
96 494 1
6 495 1
7 495 1
13 495 1
20 495 1
21 495 1
23 495 1
25 495 1
26 495 1
27 495 1
29 495 1
50 495 1
53 495 1
56 495 1
57 495 1
59 495 1
60 495 1
61 495 1
63 495 1
65 495 1
67 495 1
71 495 1
73 495 1
75 495 1
76 495 1
77 495 1
80 495 1
83 495 1
84 495 1
86 495 1
87 495 1
89 495 1
91 495 1
93 495 1
95 495 1
99 495 1
6 496 1
9 496 1
13 496 1
14 496 1
16 496 1
17 496 1
18 496 1
19 496 1
20 496 1
21 496 1
23 496 1
24 496 1
27 496 1
28 496 1
49 496 1
53 496 1
54 496 1
55 496 1
57 496 1
60 496 1
61 496 1
62 496 1
65 496 1
71 496 1
72 496 1
73 496 1
77 496 1
78 496 1
79 496 1
80 496 1
81 496 1
83 496 1
84 496 1
87 496 1
90 496 1
91 496 1
94 496 1
96 496 1
97 496 1
7 497 1
12 497 1
13 497 1
14 497 1
16 497 1
20 497 1
21 497 1
22 497 1
28 497 1
29 497 1
50 497 1
54 497 1
55 497 1
56 497 1
62 497 1
64 497 1
67 497 1
70 497 1
71 497 1
72 497 1
73 497 1
76 497 1
77 497 1
80 497 1
83 497 1
85 497 1
87 497 1
89 497 1
90 497 1
91 497 1
92 497 1
94 497 1
96 497 1
98 497 1
99 497 1
6 498 1
9 498 1
12 498 1
14 498 1
15 498 1
16 498 1
17 498 1
19 498 1
21 498 1
23 498 1
26 498 1
29 498 1
49 498 1
51 498 1
53 498 1
55 498 1
56 498 1
57 498 1
58 498 1
63 498 1
64 498 1
65 498 1
67 498 1
68 498 1
69 498 1
70 498 1
71 498 1
72 498 1
73 498 1
77 498 1
79 498 1
80 498 1
81 498 1
82 498 1
83 498 1
84 498 1
85 498 1
89 498 1
90 498 1
91 498 1
93 498 1
94 498 1
95 498 1
97 498 1
98 498 1
7 499 1
9 499 1
12 499 1
17 499 1
20 499 1
26 499 1
27 499 1
28 499 1
49 499 1
50 499 1
54 499 1
55 499 1
56 499 1
57 499 1
58 499 1
59 499 1
61 499 1
63 499 1
65 499 1
66 499 1
69 499 1
70 499 1
71 499 1
72 499 1
75 499 1
77 499 1
83 499 1
85 499 1
88 499 1
89 499 1
90 499 1
91 499 1
92 499 1
95 499 1
6 500 1
7 500 1
15 500 1
16 500 1
17 500 1
18 500 1
21 500 1
23 500 1
25 500 1
28 500 1
49 500 1
50 500 1
51 500 1
53 500 1
54 500 1
55 500 1
56 500 1
57 500 1
59 500 1
60 500 1
62 500 1
63 500 1
69 500 1
70 500 1
78 500 1
80 500 1
81 500 1
82 500 1
83 500 1
84 500 1
85 500 1
88 500 1
89 500 1
90 500 1
93 500 1
95 500 1
96 500 1
98 500 1
99 500 1
100 500 1
6 501 1
12 501 1
13 501 1
18 501 1
20 501 1
23 501 1
24 501 1
26 501 1
28 501 1
29 501 1
49 501 1
50 501 1
53 501 1
54 501 1
55 501 1
56 501 1
57 501 1
60 501 1
64 501 1
68 501 1
69 501 1
72 501 1
74 501 1
75 501 1
76 501 1
77 501 1
81 501 1
85 501 1
88 501 1
89 501 1
93 501 1
94 501 1
97 501 1
99 501 1
9 502 1
14 502 1
16 502 1
18 502 1
19 502 1
20 502 1
21 502 1
22 502 1
23 502 1
25 502 1
26 502 1
28 502 1
49 502 1
50 502 1
53 502 1
54 502 1
56 502 1
57 502 1
58 502 1
66 502 1
67 502 1
68 502 1
70 502 1
72 502 1
74 502 1
78 502 1
79 502 1
80 502 1
81 502 1
82 502 1
83 502 1
85 502 1
86 502 1
88 502 1
92 502 1
93 502 1
94 502 1
96 502 1
97 502 1
98 502 1
100 502 1
7 503 1
12 503 1
13 503 1
15 503 1
16 503 1
19 503 1
20 503 1
21 503 1
24 503 1
26 503 1
50 503 1
53 503 1
54 503 1
57 503 1
59 503 1
63 503 1
65 503 1
66 503 1
67 503 1
68 503 1
69 503 1
70 503 1
73 503 1
74 503 1
76 503 1
77 503 1
82 503 1
88 503 1
93 503 1
95 503 1
96 503 1
98 503 1
99 503 1
100 503 1
6 504 1
12 504 1
14 504 1
15 504 1
17 504 1
18 504 1
19 504 1
21 504 1
22 504 1
26 504 1
27 504 1
28 504 1
53 504 1
54 504 1
60 504 1
63 504 1
65 504 1
66 504 1
69 504 1
71 504 1
74 504 1
79 504 1
81 504 1
82 504 1
83 504 1
84 504 1
85 504 1
86 504 1
87 504 1
88 504 1
94 504 1
95 504 1
96 504 1
97 504 1
100 504 1
4 506 1
5 506 1
6 506 1
11 506 1
15 506 1
16 506 1
18 506 1
21 506 1
23 506 1
24 506 1
25 506 1
26 506 1
29 506 1
30 506 1
31 506 1
35 506 1
37 506 1
38 506 1
40 506 1
42 506 1
43 506 1
44 506 1
48 506 1
52 506 1
53 506 1
58 506 1
59 506 1
60 506 1
63 506 1
64 506 1
67 506 1
69 506 1
70 506 1
72 506 1
74 506 1
76 506 1
77 506 1
78 506 1
79 506 1
83 506 1
95 506 1
97 506 1
98 506 1
100 506 1
6 507 1
9 507 1
10 507 1
11 507 1
12 507 1
17 507 1
18 507 1
20 507 1
21 507 1
22 507 1
23 507 1
26 507 1
30 507 1
31 507 1
33 507 1
36 507 1
37 507 1
39 507 1
40 507 1
41 507 1
43 507 1
47 507 1
51 507 1
52 507 1
53 507 1
55 507 1
64 507 1
65 507 1
72 507 1
73 507 1
74 507 1
77 507 1
78 507 1
81 507 1
86 507 1
93 507 1
94 507 1
95 507 1
97 507 1
6 508 1
7 508 1
8 508 1
10 508 1
11 508 1
13 508 1
16 508 1
17 508 1
18 508 1
19 508 1
20 508 1
23 508 1
24 508 1
26 508 1
28 508 1
30 508 1
34 508 1
35 508 1
38 508 1
40 508 1
41 508 1
42 508 1
43 508 1
45 508 1
51 508 1
52 508 1
53 508 1
55 508 1
56 508 1
59 508 1
60 508 1
63 508 1
64 508 1
67 508 1
68 508 1
69 508 1
71 508 1
72 508 1
74 508 1
75 508 1
77 508 1
78 508 1
79 508 1
84 508 1
85 508 1
93 508 1
95 508 1
96 508 1
97 508 1
100 508 1
2 509 1
3 509 1
8 509 1
11 509 1
12 509 1
14 509 1
16 509 1
17 509 1
18 509 1
19 509 1
20 509 1
22 509 1
24 509 1
25 509 1
26 509 1
27 509 1
31 509 1
32 509 1
35 509 1
36 509 1
38 509 1
39 509 1
40 509 1
41 509 1
42 509 1
47 509 1
48 509 1
51 509 1
53 509 1
55 509 1
56 509 1
57 509 1
59 509 1
64 509 1
65 509 1
66 509 1
69 509 1
72 509 1
73 509 1
75 509 1
77 509 1
79 509 1
81 509 1
82 509 1
87 509 1
93 509 1
94 509 1
96 509 1
97 509 1
1 510 1
5 510 1
6 510 1
10 510 1
11 510 1
12 510 1
13 510 1
15 510 1
16 510 1
17 510 1
19 510 1
22 510 1
25 510 1
28 510 1
31 510 1
34 510 1
35 510 1
36 510 1
38 510 1
39 510 1
41 510 1
43 510 1
44 510 1
45 510 1
46 510 1
47 510 1
48 510 1
51 510 1
52 510 1
53 510 1
54 510 1
56 510 1
57 510 1
59 510 1
63 510 1
64 510 1
67 510 1
68 510 1
69 510 1
71 510 1
73 510 1
74 510 1
75 510 1
76 510 1
77 510 1
79 510 1
80 510 1
81 510 1
84 510 1
88 510 1
92 510 1
93 510 1
94 510 1
95 510 1
96 510 1
97 510 1
98 510 1
99 510 1
100 510 1
3 511 1
5 511 1
6 511 1
8 511 1
10 511 1
12 511 1
13 511 1
14 511 1
18 511 1
19 511 1
21 511 1
25 511 1
26 511 1
27 511 1
28 511 1
29 511 1
30 511 1
31 511 1
32 511 1
34 511 1
36 511 1
38 511 1
40 511 1
45 511 1
46 511 1
47 511 1
48 511 1
51 511 1
53 511 1
54 511 1
55 511 1
57 511 1
59 511 1
61 511 1
63 511 1
64 511 1
65 511 1
66 511 1
69 511 1
70 511 1
71 511 1
72 511 1
73 511 1
75 511 1
76 511 1
81 511 1
82 511 1
84 511 1
91 511 1
93 511 1
94 511 1
96 511 1
99 511 1
1 512 1
3 512 1
4 512 1
6 512 1
8 512 1
9 512 1
10 512 1
11 512 1
13 512 1
14 512 1
16 512 1
17 512 1
21 512 1
27 512 1
31 512 1
32 512 1
34 512 1
37 512 1
41 512 1
44 512 1
45 512 1
46 512 1
47 512 1
48 512 1
51 512 1
53 512 1
54 512 1
56 512 1
59 512 1
61 512 1
62 512 1
63 512 1
64 512 1
68 512 1
71 512 1
73 512 1
75 512 1
76 512 1
77 512 1
80 512 1
82 512 1
83 512 1
84 512 1
90 512 1
93 512 1
94 512 1
96 512 1
99 512 1
100 512 1
1 513 1
5 513 1
6 513 1
7 513 1
8 513 1
10 513 1
12 513 1
14 513 1
16 513 1
19 513 1
21 513 1
23 513 1
24 513 1
29 513 1
31 513 1
32 513 1
33 513 1
35 513 1
38 513 1
44 513 1
45 513 1
51 513 1
53 513 1
57 513 1
59 513 1
61 513 1
62 513 1
63 513 1
66 513 1
69 513 1
70 513 1
71 513 1
72 513 1
75 513 1
76 513 1
80 513 1
82 513 1
86 513 1
89 513 1
94 513 1
96 513 1
99 513 1
2 514 1
4 514 1
5 514 1
8 514 1
9 514 1
10 514 1
12 514 1
13 514 1
16 514 1
20 514 1
21 514 1
22 514 1
24 514 1
26 514 1
29 514 1
36 514 1
37 514 1
42 514 1
44 514 1
46 514 1
47 514 1
48 514 1
49 514 1
51 514 1
52 514 1
53 514 1
54 514 1
58 514 1
59 514 1
62 514 1
63 514 1
73 514 1
75 514 1
76 514 1
80 514 1
83 514 1
85 514 1
92 514 1
94 514 1
96 514 1
99 514 1
4 515 1
5 515 1
6 515 1
7 515 1
8 515 1
9 515 1
11 515 1
12 515 1
13 515 1
14 515 1
15 515 1
16 515 1
18 515 1
22 515 1
23 515 1
24 515 1
26 515 1
28 515 1
31 515 1
33 515 1
34 515 1
37 515 1
39 515 1
40 515 1
43 515 1
44 515 1
45 515 1
50 515 1
51 515 1
53 515 1
58 515 1
61 515 1
63 515 1
69 515 1
70 515 1
71 515 1
72 515 1
74 515 1
75 515 1
76 515 1
83 515 1
86 515 1
87 515 1
94 515 1
98 515 1
99 515 1
100 515 1
2 516 1
5 516 1
7 516 1
10 516 1
11 516 1
12 516 1
13 516 1
14 516 1
17 516 1
20 516 1
21 516 1
22 516 1
23 516 1
24 516 1
25 516 1
26 516 1
27 516 1
28 516 1
32 516 1
33 516 1
37 516 1
40 516 1
41 516 1
42 516 1
51 516 1
52 516 1
55 516 1
58 516 1
60 516 1
62 516 1
63 516 1
64 516 1
72 516 1
73 516 1
75 516 1
76 516 1
77 516 1
83 516 1
85 516 1
86 516 1
88 516 1
92 516 1
93 516 1
94 516 1
98 516 1
99 516 1
2 517 1
3 517 1
5 517 1
8 517 1
11 517 1
13 517 1
14 517 1
15 517 1
16 517 1
19 517 1
20 517 1
22 517 1
23 517 1
27 517 1
28 517 1
30 517 1
39 517 1
41 517 1
42 517 1
43 517 1
44 517 1
52 517 1
53 517 1
56 517 1
60 517 1
69 517 1
71 517 1
72 517 1
74 517 1
75 517 1
76 517 1
77 517 1
85 517 1
86 517 1
87 517 1
91 517 1
93 517 1
94 517 1
100 517 1
1 518 1
2 518 1
6 518 1
11 518 1
12 518 1
14 518 1
15 518 1
20 518 1
24 518 1
25 518 1
27 518 1
28 518 1
29 518 1
31 518 1
39 518 1
40 518 1
42 518 1
43 518 1
46 518 1
48 518 1
51 518 1
52 518 1
53 518 1
55 518 1
57 518 1
58 518 1
59 518 1
60 518 1
64 518 1
67 518 1
69 518 1
72 518 1
73 518 1
76 518 1
77 518 1
85 518 1
87 518 1
88 518 1
90 518 1
92 518 1
94 518 1
96 518 1
97 518 1
3 519 1
5 519 1
6 519 1
9 519 1
10 519 1
13 519 1
22 519 1
23 519 1
25 519 1
27 519 1
29 519 1
30 519 1
31 519 1
35 519 1
37 519 1
38 519 1
39 519 1
40 519 1
41 519 1
43 519 1
48 519 1
51 519 1
52 519 1
53 519 1
54 519 1
56 519 1
64 519 1
65 519 1
67 519 1
69 519 1
71 519 1
72 519 1
73 519 1
74 519 1
75 519 1
76 519 1
77 519 1
78 519 1
87 519 1
88 519 1
89 519 1
91 519 1
93 519 1
96 519 1
97 519 1
1 520 1
2 520 1
3 520 1
4 520 1
6 520 1
7 520 1
8 520 1
9 520 1
10 520 1
11 520 1
14 520 1
16 520 1
18 520 1
20 520 1
21 520 1
23 520 1
25 520 1
28 520 1
29 520 1
30 520 1
31 520 1
36 520 1
38 520 1
40 520 1
41 520 1
43 520 1
46 520 1
47 520 1
49 520 1
51 520 1
53 520 1
55 520 1
57 520 1
59 520 1
60 520 1
61 520 1
63 520 1
64 520 1
65 520 1
67 520 1
68 520 1
69 520 1
71 520 1
72 520 1
73 520 1
75 520 1
77 520 1
88 520 1
90 520 1
91 520 1
97 520 1
99 520 1
1 521 1
2 521 1
3 521 1
7 521 1
8 521 1
9 521 1
10 521 1
12 521 1
16 521 1
17 521 1
20 521 1
23 521 1
26 521 1
27 521 1
29 521 1
31 521 1
33 521 1
34 521 1
35 521 1
38 521 1
40 521 1
41 521 1
42 521 1
43 521 1
45 521 1
46 521 1
47 521 1
48 521 1
50 521 1
51 521 1
52 521 1
53 521 1
54 521 1
56 521 1
59 521 1
62 521 1
64 521 1
65 521 1
66 521 1
68 521 1
69 521 1
71 521 1
72 521 1
73 521 1
75 521 1
76 521 1
77 521 1
79 521 1
89 521 1
90 521 1
91 521 1
92 521 1
94 521 1
95 521 1
99 521 1
1 522 1
2 522 1
4 522 1
5 522 1
7 522 1
8 522 1
9 522 1
10 522 1
12 522 1
13 522 1
15 522 1
16 522 1
18 522 1
19 522 1
20 522 1
23 522 1
24 522 1
25 522 1
32 522 1
35 522 1
36 522 1
39 522 1
40 522 1
41 522 1
45 522 1
46 522 1
47 522 1
48 522 1
49 522 1
51 522 1
57 522 1
59 522 1
61 522 1
63 522 1
66 522 1
67 522 1
68 522 1
69 522 1
71 522 1
73 522 1
75 522 1
76 522 1
77 522 1
81 522 1
89 522 1
90 522 1
92 522 1
93 522 1
95 522 1
96 522 1
2 523 1
4 523 1
5 523 1
7 523 1
8 523 1
12 523 1
13 523 1
14 523 1
15 523 1
17 523 1
18 523 1
20 523 1
22 523 1
25 523 1
26 523 1
29 523 1
31 523 1
33 523 1
34 523 1
36 523 1
38 523 1
41 523 1
44 523 1
45 523 1
46 523 1
48 523 1
49 523 1
50 523 1
53 523 1
54 523 1
58 523 1
59 523 1
62 523 1
63 523 1
64 523 1
65 523 1
66 523 1
69 523 1
70 523 1
71 523 1
73 523 1
75 523 1
76 523 1
77 523 1
84 523 1
89 523 1
94 523 1
96 523 1
97 523 1
100 523 1
2 524 1
3 524 1
4 524 1
5 524 1
9 524 1
10 524 1
11 524 1
13 524 1
14 524 1
15 524 1
17 524 1
19 524 1
23 524 1
25 524 1
26 524 1
28 524 1
32 524 1
33 524 1
34 524 1
40 524 1
44 524 1
47 524 1
48 524 1
49 524 1
50 524 1
51 524 1
61 524 1
63 524 1
68 524 1
70 524 1
71 524 1
73 524 1
76 524 1
77 524 1
82 524 1
93 524 1
94 524 1
95 524 1
97 524 1
99 524 1
100 524 1
1 525 1
2 525 1
5 525 1
6 525 1
7 525 1
8 525 1
11 525 1
14 525 1
15 525 1
19 525 1
20 525 1
21 525 1
25 525 1
26 525 1
27 525 1
30 525 1
32 525 1
33 525 1
37 525 1
41 525 1
43 525 1
44 525 1
45 525 1
46 525 1
48 525 1
50 525 1
58 525 1
59 525 1
60 525 1
62 525 1
63 525 1
64 525 1
66 525 1
70 525 1
71 525 1
72 525 1
75 525 1
76 525 1
77 525 1
78 525 1
80 525 1
92 525 1
93 525 1
98 525 1
99 525 1
1 590 1
2 590 1
8 590 1
9 590 1
10 590 1
11 590 1
12 590 1
14 590 1
15 590 1
18 590 1
21 590 1
22 590 1
26 590 1
28 590 1
29 590 1
30 590 1
31 590 1
34 590 1
35 590 1
36 590 1
37 590 1
40 590 1
48 590 1
51 590 1
54 590 1
59 590 1
64 590 1
65 590 1
66 590 1
67 590 1
68 590 1
69 590 1
70 590 1
72 590 1
81 590 1
83 590 1
87 590 1
90 590 1
91 590 1
92 590 1
93 590 1
96 590 1
97 590 1
98 590 1
99 590 1
100 590 1
1 591 1
2 591 1
4 591 1
5 591 1
7 591 1
12 591 1
13 591 1
14 591 1
15 591 1
16 591 1
17 591 1
21 591 1
22 591 1
25 591 1
26 591 1
27 591 1
31 591 1
32 591 1
35 591 1
37 591 1
40 591 1
41 591 1
42 591 1
51 591 1
54 591 1
58 591 1
59 591 1
60 591 1
61 591 1
64 591 1
67 591 1
73 591 1
75 591 1
81 591 1
83 591 1
84 591 1
86 591 1
87 591 1
88 591 1
89 591 1
91 591 1
95 591 1
99 591 1
1 592 1
2 592 1
6 592 1
8 592 1
9 592 1
13 592 1
15 592 1
16 592 1
19 592 1
21 592 1
22 592 1
24 592 1
25 592 1
30 592 1
31 592 1
33 592 1
34 592 1
39 592 1
41 592 1
49 592 1
51 592 1
54 592 1
58 592 1
60 592 1
61 592 1
62 592 1
63 592 1
64 592 1
66 592 1
67 592 1
68 592 1
69 592 1
70 592 1
71 592 1
72 592 1
75 592 1
78 592 1
81 592 1
82 592 1
83 592 1
84 592 1
85 592 1
86 592 1
87 592 1
88 592 1
95 592 1
98 592 1
1 593 1
5 593 1
7 593 1
8 593 1
9 593 1
16 593 1
18 593 1
21 593 1
23 593 1
24 593 1
25 593 1
26 593 1
29 593 1
32 593 1
34 593 1
35 593 1
36 593 1
40 593 1
48 593 1
50 593 1
51 593 1
54 593 1
58 593 1
61 593 1
62 593 1
63 593 1
68 593 1
73 593 1
74 593 1
75 593 1
76 593 1
78 593 1
80 593 1
81 593 1
82 593 1
83 593 1
84 593 1
85 593 1
86 593 1
88 593 1
90 593 1
95 593 1
97 593 1
98 593 1
99 593 1
100 593 1
1 594 1
2 594 1
3 594 1
6 594 1
7 594 1
8 594 1
10 594 1
14 594 1
15 594 1
17 594 1
18 594 1
20 594 1
21 594 1
24 594 1
25 594 1
26 594 1
28 594 1
31 594 1
32 594 1
37 594 1
41 594 1
42 594 1
48 594 1
51 594 1
53 594 1
54 594 1
55 594 1
61 594 1
62 594 1
65 594 1
68 594 1
69 594 1
70 594 1
71 594 1
72 594 1
75 594 1
76 594 1
77 594 1
78 594 1
79 594 1
80 594 1
81 594 1
82 594 1
83 594 1
84 594 1
85 594 1
86 594 1
89 594 1
90 594 1
92 594 1
93 594 1
94 594 1
95 594 1
96 594 1
98 594 1
99 594 1
100 594 1
2 595 1
6 595 1
9 595 1
12 595 1
14 595 1
16 595 1
17 595 1
19 595 1
24 595 1
25 595 1
26 595 1
27 595 1
28 595 1
31 595 1
34 595 1
35 595 1
36 595 1
39 595 1
42 595 1
49 595 1
54 595 1
56 595 1
59 595 1
61 595 1
62 595 1
65 595 1
67 595 1
72 595 1
73 595 1
74 595 1
75 595 1
76 595 1
77 595 1
78 595 1
79 595 1
80 595 1
82 595 1
84 595 1
85 595 1
86 595 1
89 595 1
90 595 1
91 595 1
92 595 1
95 595 1
96 595 1
99 595 1
1 596 1
2 596 1
7 596 1
8 596 1
9 596 1
11 596 1
13 596 1
14 596 1
19 596 1
21 596 1
23 596 1
24 596 1
27 596 1
28 596 1
30 596 1
31 596 1
32 596 1
35 596 1
37 596 1
39 596 1
40 596 1
48 596 1
49 596 1
50 596 1
51 596 1
54 596 1
55 596 1
57 596 1
59 596 1
60 596 1
61 596 1
62 596 1
66 596 1
67 596 1
69 596 1
71 596 1
72 596 1
76 596 1
77 596 1
78 596 1
79 596 1
80 596 1
82 596 1
85 596 1
89 596 1
91 596 1
92 596 1
93 596 1
94 596 1
1 597 1
3 597 1
4 597 1
5 597 1
6 597 1
7 597 1
8 597 1
9 597 1
12 597 1
15 597 1
20 597 1
21 597 1
23 597 1
25 597 1
27 597 1
28 597 1
29 597 1
31 597 1
34 597 1
35 597 1
37 597 1
41 597 1
42 597 1
49 597 1
50 597 1
51 597 1
53 597 1
56 597 1
59 597 1
60 597 1
61 597 1
62 597 1
63 597 1
66 597 1
67 597 1
68 597 1
69 597 1
73 597 1
74 597 1
75 597 1
76 597 1
77 597 1
79 597 1
80 597 1
91 597 1
93 597 1
94 597 1
95 597 1
96 597 1
97 597 1
3 598 1
6 598 1
7 598 1
8 598 1
12 598 1
13 598 1
14 598 1
16 598 1
18 598 1
20 598 1
22 598 1
24 598 1
25 598 1
27 598 1
28 598 1
29 598 1
31 598 1
32 598 1
33 598 1
34 598 1
39 598 1
40 598 1
50 598 1
53 598 1
54 598 1
55 598 1
57 598 1
59 598 1
60 598 1
62 598 1
63 598 1
68 598 1
69 598 1
70 598 1
71 598 1
73 598 1
75 598 1
77 598 1
78 598 1
79 598 1
87 598 1
91 598 1
94 598 1
96 598 1
97 598 1
99 598 1
100 598 1
6 599 1
8 599 1
11 599 1
13 599 1
17 599 1
24 599 1
27 599 1
29 599 1
32 599 1
34 599 1
35 599 1
36 599 1
37 599 1
41 599 1
48 599 1
53 599 1
56 599 1
59 599 1
60 599 1
61 599 1
63 599 1
65 599 1
68 599 1
70 599 1
71 599 1
72 599 1
73 599 1
74 599 1
76 599 1
78 599 1
87 599 1
88 599 1
91 599 1
94 599 1
96 599 1
98 599 1
1 600 1
3 600 1
4 600 1
8 600 1
10 600 1
11 600 1
12 600 1
18 600 1
19 600 1
21 600 1
28 600 1
29 600 1
31 600 1
32 600 1
35 600 1
42 600 1
54 600 1
55 600 1
57 600 1
59 600 1
60 600 1
62 600 1
63 600 1
64 600 1
65 600 1
71 600 1
72 600 1
74 600 1
76 600 1
79 600 1
81 600 1
83 600 1
87 600 1
88 600 1
94 600 1
96 600 1
97 600 1
2 601 1
4 601 1
12 601 1
13 601 1
14 601 1
15 601 1
17 601 1
18 601 1
21 601 1
22 601 1
23 601 1
25 601 1
26 601 1
27 601 1
28 601 1
29 601 1
31 601 1
33 601 1
34 601 1
35 601 1
37 601 1
39 601 1
48 601 1
51 601 1
55 601 1
56 601 1
58 601 1
59 601 1
60 601 1
61 601 1
63 601 1
65 601 1
66 601 1
69 601 1
72 601 1
74 601 1
79 601 1
83 601 1
84 601 1
86 601 1
87 601 1
88 601 1
90 601 1
94 601 1
96 601 1
97 601 1
98 601 1
1 602 1
8 602 1
11 602 1
12 602 1
13 602 1
15 602 1
16 602 1
17 602 1
19 602 1
20 602 1
21 602 1
22 602 1
24 602 1
25 602 1
27 602 1
30 602 1
32 602 1
33 602 1
34 602 1
35 602 1
37 602 1
40 602 1
42 602 1
51 602 1
54 602 1
55 602 1
56 602 1
57 602 1
60 602 1
62 602 1
63 602 1
64 602 1
65 602 1
66 602 1
69 602 1
73 602 1
75 602 1
82 602 1
83 602 1
85 602 1
86 602 1
87 602 1
88 602 1
89 602 1
90 602 1
92 602 1
94 602 1
96 602 1
97 602 1
100 602 1
1 603 1
3 603 1
4 603 1
5 603 1
8 603 1
9 603 1
10 603 1
13 603 1
15 603 1
16 603 1
18 603 1
19 603 1
23 603 1
24 603 1
25 603 1
29 603 1
32 603 1
34 603 1
35 603 1
37 603 1
39 603 1
41 603 1
49 603 1
51 603 1
56 603 1
57 603 1
58 603 1
59 603 1
61 603 1
63 603 1
65 603 1
66 603 1
69 603 1
70 603 1
71 603 1
73 603 1
75 603 1
78 603 1
80 603 1
81 603 1
83 603 1
85 603 1
86 603 1
88 603 1
89 603 1
90 603 1
92 603 1
93 603 1
96 603 1
97 603 1
98 603 1
100 603 1
2 604 1
7 604 1
10 604 1
15 604 1
16 604 1
17 604 1
18 604 1
20 604 1
21 604 1
23 604 1
24 604 1
26 604 1
28 604 1
29 604 1
31 604 1
32 604 1
33 604 1
34 604 1
49 604 1
50 604 1
51 604 1
57 604 1
60 604 1
62 604 1
64 604 1
65 604 1
66 604 1
70 604 1
71 604 1
73 604 1
74 604 1
75 604 1
76 604 1
77 604 1
78 604 1
81 604 1
83 604 1
84 604 1
85 604 1
86 604 1
89 604 1
90 604 1
92 604 1
93 604 1
94 604 1
96 604 1
97 604 1
98 604 1
100 604 1
1 605 1
3 605 1
6 605 1
11 605 1
14 605 1
15 605 1
16 605 1
17 605 1
18 605 1
19 605 1
20 605 1
25 605 1
26 605 1
27 605 1
28 605 1
30 605 1
32 605 1
34 605 1
35 605 1
36 605 1
37 605 1
48 605 1
49 605 1
50 605 1
51 605 1
53 605 1
55 605 1
58 605 1
59 605 1
63 605 1
65 605 1
66 605 1
67 605 1
70 605 1
71 605 1
74 605 1
75 605 1
76 605 1
78 605 1
79 605 1
81 605 1
82 605 1
84 605 1
85 605 1
86 605 1
89 605 1
90 605 1
91 605 1
95 605 1
97 605 1
100 605 1
4 606 1
5 606 1
8 606 1
9 606 1
10 606 1
14 606 1
16 606 1
17 606 1
19 606 1
22 606 1
23 606 1
24 606 1
27 606 1
28 606 1
30 606 1
31 606 1
32 606 1
35 606 1
37 606 1
42 606 1
49 606 1
50 606 1
53 606 1
54 606 1
55 606 1
56 606 1
60 606 1
64 606 1
66 606 1
70 606 1
74 606 1
75 606 1
76 606 1
78 606 1
79 606 1
80 606 1
82 606 1
83 606 1
84 606 1
85 606 1
89 606 1
91 606 1
93 606 1
97 606 1
1 607 1
5 607 1
7 607 1
9 607 1
11 607 1
14 607 1
15 607 1
19 607 1
20 607 1
21 607 1
23 607 1
27 607 1
29 607 1
31 607 1
33 607 1
34 607 1
37 607 1
39 607 1
49 607 1
50 607 1
53 607 1
54 607 1
55 607 1
56 607 1
57 607 1
58 607 1
59 607 1
61 607 1
63 607 1
64 607 1
65 607 1
66 607 1
67 607 1
68 607 1
70 607 1
76 607 1
77 607 1
78 607 1
79 607 1
80 607 1
82 607 1
83 607 1
86 607 1
91 607 1
92 607 1
95 607 1
97 607 1
99 607 1
1 608 1
2 608 1
4 608 1
6 608 1
7 608 1
8 608 1
12 608 1
14 608 1
15 608 1
16 608 1
20 608 1
22 608 1
23 608 1
25 608 1
28 608 1
29 608 1
30 608 1
32 608 1
34 608 1
36 608 1
37 608 1
40 608 1
50 608 1
53 608 1
56 608 1
57 608 1
58 608 1
60 608 1
61 608 1
62 608 1
64 608 1
70 608 1
76 608 1
77 608 1
79 608 1
80 608 1
85 608 1
86 608 1
87 608 1
91 608 1
92 608 1
93 608 1
94 608 1
95 608 1
96 608 1
99 608 1
100 608 1
1 609 1
2 609 1
3 609 1
5 609 1
6 609 1
8 609 1
10 609 1
13 609 1
14 609 1
16 609 1
20 609 1
22 609 1
24 609 1
26 609 1
27 609 1
29 609 1
31 609 1
32 609 1
33 609 1
35 609 1
36 609 1
37 609 1
41 609 1
53 609 1
57 609 1
58 609 1
62 609 1
63 609 1
65 609 1
66 609 1
67 609 1
68 609 1
70 609 1
72 609 1
77 609 1
79 609 1
85 609 1
88 609 1
91 609 1
93 609 1
94 609 1
95 609 1
99 609 1
100 609 1
3 611 1
6 611 1
8 611 1
9 611 1
12 611 1
13 611 1
16 611 1
17 611 1
20 611 1
23 611 1
24 611 1
29 611 1
32 611 1
33 611 1
34 611 1
42 611 1
48 611 1
50 611 1
51 611 1
53 611 1
54 611 1
57 611 1
59 611 1
60 611 1
65 611 1
67 611 1
68 611 1
71 611 1
75 611 1
76 611 1
78 611 1
80 611 1
83 611 1
84 611 1
88 611 1
90 611 1
91 611 1
92 611 1
93 611 1
94 611 1
95 611 1
99 611 1
100 611 1
1 612 1
6 612 1
7 612 1
8 612 1
14 612 1
15 612 1
16 612 1
17 612 1
19 612 1
21 612 1
22 612 1
23 612 1
24 612 1
29 612 1
30 612 1
31 612 1
33 612 1
34 612 1
39 612 1
40 612 1
48 612 1
50 612 1
57 612 1
59 612 1
61 612 1
63 612 1
66 612 1
67 612 1
71 612 1
74 612 1
77 612 1
79 612 1
80 612 1
82 612 1
83 612 1
84 612 1
86 612 1
88 612 1
89 612 1
93 612 1
95 612 1
97 612 1
99 612 1
100 612 1
2 613 1
5 613 1
8 613 1
10 613 1
11 613 1
13 613 1
15 613 1
17 613 1
18 613 1
19 613 1
22 613 1
24 613 1
25 613 1
28 613 1
29 613 1
30 613 1
31 613 1
33 613 1
34 613 1
41 613 1
48 613 1
49 613 1
50 613 1
51 613 1
55 613 1
57 613 1
59 613 1
62 613 1
68 613 1
71 613 1
72 613 1
74 613 1
75 613 1
76 613 1
77 613 1
78 613 1
81 613 1
82 613 1
84 613 1
85 613 1
86 613 1
88 613 1
90 613 1
93 613 1
94 613 1
97 613 1
99 613 1
3 614 1
4 614 1
5 614 1
6 614 1
10 614 1
12 614 1
13 614 1
14 614 1
19 614 1
20 614 1
22 614 1
27 614 1
28 614 1
29 614 1
30 614 1
31 614 1
33 614 1
34 614 1
35 614 1
37 614 1
48 614 1
51 614 1
55 614 1
56 614 1
57 614 1
59 614 1
64 614 1
65 614 1
66 614 1
67 614 1
68 614 1
70 614 1
71 614 1
74 614 1
79 614 1
82 614 1
85 614 1
87 614 1
88 614 1
89 614 1
90 614 1
92 614 1
94 614 1
95 614 1
97 614 1
99 614 1
100 614 1
1 615 1
2 615 1
5 615 1
6 615 1
10 615 1
12 615 1
14 615 1
15 615 1
16 615 1
17 615 1
18 615 1
20 615 1
21 615 1
24 615 1
26 615 1
27 615 1
28 615 1
29 615 1
31 615 1
34 615 1
35 615 1
36 615 1
49 615 1
50 615 1
51 615 1
53 615 1
55 615 1
56 615 1
58 615 1
59 615 1
66 615 1
67 615 1
69 615 1
71 615 1
72 615 1
74 615 1
76 615 1
78 615 1
81 615 1
83 615 1
84 615 1
87 615 1
89 615 1
90 615 1
96 615 1
97 615 1
98 615 1
99 615 1
100 615 1
2 616 1
6 616 1
10 616 1
11 616 1
15 616 1
18 616 1
19 616 1
20 616 1
21 616 1
22 616 1
23 616 1
24 616 1
25 616 1
26 616 1
27 616 1
33 616 1
35 616 1
36 616 1
42 616 1
48 616 1
49 616 1
54 616 1
55 616 1
56 616 1
67 616 1
68 616 1
70 616 1
71 616 1
72 616 1
73 616 1
74 616 1
78 616 1
79 616 1
80 616 1
82 616 1
83 616 1
86 616 1
89 616 1
90 616 1
91 616 1
92 616 1
96 616 1
97 616 1
99 616 1
100 616 1
2 617 1
4 617 1
6 617 1
9 617 1
12 617 1
13 617 1
15 617 1
21 617 1
22 617 1
25 617 1
26 617 1
28 617 1
31 617 1
32 617 1
33 617 1
36 617 1
39 617 1
48 617 1
49 617 1
51 617 1
53 617 1
54 617 1
55 617 1
56 617 1
59 617 1
60 617 1
61 617 1
66 617 1
67 617 1
68 617 1
69 617 1
70 617 1
74 617 1
75 617 1
77 617 1
78 617 1
81 617 1
83 617 1
84 617 1
85 617 1
86 617 1
88 617 1
89 617 1
91 617 1
92 617 1
93 617 1
94 617 1
95 617 1
97 617 1
98 617 1
2 618 1
6 618 1
7 618 1
8 618 1
9 618 1
10 618 1
12 618 1
14 618 1
15 618 1
17 618 1
20 618 1
23 618 1
25 618 1
27 618 1
28 618 1
31 618 1
32 618 1
40 618 1
48 618 1
49 618 1
53 618 1
54 618 1
55 618 1
56 618 1
59 618 1
61 618 1
62 618 1
63 618 1
66 618 1
67 618 1
68 618 1
69 618 1
71 618 1
72 618 1
73 618 1
80 618 1
82 618 1
85 618 1
86 618 1
87 618 1
88 618 1
92 618 1
95 618 1
96 618 1
2 619 1
3 619 1
7 619 1
9 619 1
10 619 1
12 619 1
15 619 1
17 619 1
18 619 1
19 619 1
21 619 1
23 619 1
26 619 1
27 619 1
29 619 1
30 619 1
32 619 1
33 619 1
34 619 1
40 619 1
41 619 1
48 619 1
53 619 1
54 619 1
56 619 1
59 619 1
61 619 1
62 619 1
64 619 1
66 619 1
68 619 1
70 619 1
72 619 1
73 619 1
74 619 1
75 619 1
76 619 1
77 619 1
78 619 1
83 619 1
84 619 1
85 619 1
87 619 1
90 619 1
92 619 1
94 619 1
96 619 1
98 619 1
99 619 1
100 619 1
1 620 1
2 620 1
5 620 1
7 620 1
12 620 1
19 620 1
24 620 1
25 620 1
26 620 1
31 620 1
33 620 1
34 620 1
37 620 1
40 620 1
41 620 1
48 620 1
50 620 1
53 620 1
54 620 1
55 620 1
58 620 1
59 620 1
61 620 1
62 620 1
64 620 1
65 620 1
66 620 1
67 620 1
68 620 1
69 620 1
70 620 1
72 620 1
75 620 1
79 620 1
80 620 1
82 620 1
84 620 1
86 620 1
87 620 1
89 620 1
90 620 1
91 620 1
93 620 1
94 620 1
95 620 1
96 620 1
97 620 1
98 620 1
8 621 1
9 621 1
10 621 1
11 621 1
12 621 1
16 621 1
17 621 1
20 621 1
22 621 1
31 621 1
33 621 1
34 621 1
35 621 1
37 621 1
41 621 1
49 621 1
50 621 1
54 621 1
56 621 1
57 621 1
58 621 1
61 621 1
62 621 1
64 621 1
66 621 1
67 621 1
69 621 1
70 621 1
71 621 1
72 621 1
73 621 1
75 621 1
76 621 1
77 621 1
81 621 1
82 621 1
83 621 1
84 621 1
85 621 1
89 621 1
91 621 1
93 621 1
94 621 1
96 621 1
98 621 1
2 622 1
4 622 1
6 622 1
7 622 1
9 622 1
10 622 1
16 622 1
17 622 1
19 622 1
20 622 1
21 622 1
23 622 1
24 622 1
28 622 1
29 622 1
30 622 1
31 622 1
33 622 1
34 622 1
36 622 1
37 622 1
42 622 1
49 622 1
51 622 1
58 622 1
60 622 1
61 622 1
62 622 1
64 622 1
67 622 1
68 622 1
69 622 1
70 622 1
72 622 1
73 622 1
74 622 1
75 622 1
76 622 1
79 622 1
82 622 1
86 622 1
87 622 1
88 622 1
91 622 1
92 622 1
93 622 1
5 623 1
7 623 1
10 623 1
13 623 1
15 623 1
16 623 1
17 623 1
19 623 1
21 623 1
22 623 1
24 623 1
25 623 1
27 623 1
29 623 1
31 623 1
39 623 1
42 623 1
51 623 1
53 623 1
54 623 1
55 623 1
57 623 1
58 623 1
60 623 1
62 623 1
63 623 1
64 623 1
66 623 1
67 623 1
68 623 1
69 623 1
70 623 1
73 623 1
76 623 1
79 623 1
81 623 1
83 623 1
84 623 1
85 623 1
94 623 1
96 623 1
2 624 1
10 624 1
13 624 1
14 624 1
17 624 1
19 624 1
20 624 1
22 624 1
25 624 1
26 624 1
28 624 1
29 624 1
32 624 1
33 624 1
34 624 1
35 624 1
39 624 1
42 624 1
48 624 1
50 624 1
53 624 1
56 624 1
57 624 1
58 624 1
60 624 1
61 624 1
63 624 1
64 624 1
66 624 1
68 624 1
69 624 1
72 624 1
73 624 1
76 624 1
78 624 1
79 624 1
80 624 1
81 624 1
82 624 1
83 624 1
86 624 1
87 624 1
88 624 1
90 624 1
91 624 1
92 624 1
93 624 1
94 624 1
95 624 1
96 624 1
99 624 1
3 625 1
6 625 1
12 625 1
13 625 1
14 625 1
16 625 1
17 625 1
18 625 1
19 625 1
20 625 1
21 625 1
27 625 1
28 625 1
31 625 1
33 625 1
34 625 1
36 625 1
39 625 1
40 625 1
48 625 1
50 625 1
58 625 1
60 625 1
62 625 1
63 625 1
65 625 1
66 625 1
68 625 1
70 625 1
72 625 1
73 625 1
75 625 1
77 625 1
78 625 1
79 625 1
81 625 1
83 625 1
85 625 1
86 625 1
89 625 1
96 625 1
97 625 1
1 626 1
2 626 1
3 626 1
6 626 1
8 626 1
9 626 1
10 626 1
14 626 1
15 626 1
16 626 1
18 626 1
19 626 1
20 626 1
21 626 1
24 626 1
25 626 1
26 626 1
27 626 1
29 626 1
31 626 1
33 626 1
41 626 1
48 626 1
49 626 1
50 626 1
51 626 1
54 626 1
57 626 1
60 626 1
63 626 1
64 626 1
65 626 1
66 626 1
69 626 1
70 626 1
72 626 1
75 626 1
80 626 1
81 626 1
85 626 1
86 626 1
87 626 1
88 626 1
90 626 1
91 626 1
93 626 1
94 626 1
96 626 1
1 627 1
2 627 1
3 627 1
6 627 1
7 627 1
10 627 1
11 627 1
13 627 1
15 627 1
18 627 1
20 627 1
21 627 1
22 627 1
25 627 1
26 627 1
30 627 1
31 627 1
32 627 1
33 627 1
34 627 1
37 627 1
48 627 1
51 627 1
57 627 1
58 627 1
59 627 1
60 627 1
61 627 1
63 627 1
65 627 1
69 627 1
70 627 1
71 627 1
72 627 1
73 627 1
76 627 1
77 627 1
80 627 1
83 627 1
85 627 1
87 627 1
89 627 1
93 627 1
94 627 1
95 627 1
96 627 1
1 628 1
4 628 1
5 628 1
9 628 1
10 628 1
11 628 1
12 628 1
13 628 1
14 628 1
15 628 1
20 628 1
21 628 1
23 628 1
25 628 1
28 628 1
31 628 1
33 628 1
34 628 1
40 628 1
49 628 1
50 628 1
51 628 1
53 628 1
57 628 1
62 628 1
63 628 1
65 628 1
69 628 1
70 628 1
73 628 1
74 628 1
76 628 1
77 628 1
78 628 1
79 628 1
80 628 1
84 628 1
86 628 1
87 628 1
90 628 1
91 628 1
92 628 1
93 628 1
94 628 1
96 628 1
100 628 1
4 629 1
6 629 1
7 629 1
9 629 1
10 629 1
11 629 1
12 629 1
14 629 1
17 629 1
18 629 1
21 629 1
23 629 1
25 629 1
27 629 1
29 629 1
31 629 1
34 629 1
35 629 1
41 629 1
42 629 1
48 629 1
55 629 1
57 629 1
59 629 1
60 629 1
64 629 1
65 629 1
69 629 1
73 629 1
77 629 1
78 629 1
79 629 1
80 629 1
81 629 1
82 629 1
84 629 1
85 629 1
89 629 1
91 629 1
92 629 1
94 629 1
96 629 1
98 629 1
100 629 1
4 630 1
7 630 1
10 630 1
12 630 1
15 630 1
16 630 1
18 630 1
19 630 1
23 630 1
25 630 1
26 630 1
29 630 1
34 630 1
36 630 1
37 630 1
39 630 1
48 630 1
49 630 1
50 630 1
51 630 1
53 630 1
56 630 1
57 630 1
58 630 1
59 630 1
63 630 1
65 630 1
67 630 1
73 630 1
75 630 1
77 630 1
78 630 1
81 630 1
82 630 1
87 630 1
88 630 1
91 630 1
93 630 1
98 630 1
100 630 1
1 631 1
2 631 1
7 631 1
10 631 1
12 631 1
13 631 1
14 631 1
16 631 1
17 631 1
19 631 1
20 631 1
21 631 1
22 631 1
23 631 1
24 631 1
27 631 1
28 631 1
30 631 1
32 631 1
33 631 1
34 631 1
39 631 1
40 631 1
41 631 1
48 631 1
51 631 1
53 631 1
55 631 1
56 631 1
58 631 1
59 631 1
60 631 1
64 631 1
70 631 1
73 631 1
75 631 1
78 631 1
80 631 1
81 631 1
83 631 1
84 631 1
92 631 1
96 631 1
98 631 1
1 632 1
2 632 1
3 632 1
5 632 1
8 632 1
10 632 1
12 632 1
15 632 1
16 632 1
17 632 1
19 632 1
24 632 1
25 632 1
27 632 1
30 632 1
33 632 1
35 632 1
36 632 1
41 632 1
50 632 1
51 632 1
53 632 1
56 632 1
58 632 1
59 632 1
63 632 1
64 632 1
66 632 1
70 632 1
72 632 1
77 632 1
80 632 1
81 632 1
82 632 1
86 632 1
87 632 1
88 632 1
92 632 1
94 632 1
95 632 1
96 632 1
97 632 1
3 633 1
5 633 1
6 633 1
8 633 1
10 633 1
12 633 1
14 633 1
15 633 1
17 633 1
18 633 1
19 633 1
20 633 1
21 633 1
28 633 1
32 633 1
33 633 1
34 633 1
40 633 1
42 633 1
50 633 1
51 633 1
58 633 1
59 633 1
64 633 1
66 633 1
67 633 1
71 633 1
76 633 1
77 633 1
78 633 1
81 633 1
83 633 1
85 633 1
87 633 1
91 633 1
97 633 1
99 633 1
100 633 1
2 634 1
6 634 1
8 634 1
10 634 1
11 634 1
14 634 1
19 634 1
20 634 1
22 634 1
24 634 1
25 634 1
26 634 1
27 634 1
28 634 1
33 634 1
36 634 1
37 634 1
39 634 1
41 634 1
42 634 1
50 634 1
57 634 1
58 634 1
59 634 1
64 634 1
65 634 1
66 634 1
69 634 1
70 634 1
71 634 1
74 634 1
78 634 1
79 634 1
80 634 1
81 634 1
83 634 1
86 634 1
90 634 1
92 634 1
93 634 1
94 634 1
95 634 1
98 634 1
99 634 1
1 635 1
4 635 1
6 635 1
8 635 1
10 635 1
11 635 1
13 635 1
14 635 1
16 635 1
17 635 1
20 635 1
27 635 1
29 635 1
32 635 1
33 635 1
34 635 1
35 635 1
36 635 1
39 635 1
40 635 1
42 635 1
48 635 1
50 635 1
54 635 1
55 635 1
57 635 1
58 635 1
59 635 1
64 635 1
66 635 1
68 635 1
70 635 1
71 635 1
73 635 1
74 635 1
75 635 1
77 635 1
78 635 1
80 635 1
85 635 1
86 635 1
87 635 1
88 635 1
89 635 1
94 635 1
1 636 1
3 636 1
4 636 1
6 636 1
8 636 1
9 636 1
10 636 1
12 636 1
13 636 1
16 636 1
17 636 1
19 636 1
20 636 1
22 636 1
23 636 1
24 636 1
28 636 1
34 636 1
35 636 1
37 636 1
39 636 1
41 636 1
49 636 1
50 636 1
54 636 1
55 636 1
56 636 1
57 636 1
58 636 1
59 636 1
61 636 1
64 636 1
70 636 1
74 636 1
75 636 1
77 636 1
80 636 1
81 636 1
83 636 1
84 636 1
85 636 1
91 636 1
93 636 1
95 636 1
97 636 1
98 636 1
2 637 1
3 637 1
6 637 1
7 637 1
8 637 1
10 637 1
12 637 1
16 637 1
17 637 1
18 637 1
19 637 1
24 637 1
26 637 1
27 637 1
31 637 1
35 637 1
40 637 1
42 637 1
48 637 1
54 637 1
55 637 1
56 637 1
58 637 1
59 637 1
61 637 1
62 637 1
64 637 1
66 637 1
70 637 1
71 637 1
72 637 1
75 637 1
76 637 1
77 637 1
80 637 1
81 637 1
82 637 1
83 637 1
86 637 1
88 637 1
90 637 1
92 637 1
93 637 1
95 637 1
97 637 1
100 637 1
3 638 1
8 638 1
11 638 1
12 638 1
14 638 1
16 638 1
18 638 1
19 638 1
20 638 1
21 638 1
24 638 1
28 638 1
29 638 1
31 638 1
32 638 1
33 638 1
35 638 1
37 638 1
39 638 1
40 638 1
41 638 1
50 638 1
53 638 1
56 638 1
58 638 1
59 638 1
61 638 1
62 638 1
66 638 1
71 638 1
74 638 1
75 638 1
76 638 1
77 638 1
79 638 1
81 638 1
83 638 1
85 638 1
86 638 1
87 638 1
88 638 1
89 638 1
91 638 1
94 638 1
97 638 1
98 638 1
2 639 1
4 639 1
6 639 1
9 639 1
11 639 1
12 639 1
14 639 1
15 639 1
16 639 1
20 639 1
24 639 1
25 639 1
26 639 1
27 639 1
28 639 1
32 639 1
33 639 1
35 639 1
41 639 1
42 639 1
48 639 1
49 639 1
50 639 1
51 639 1
55 639 1
59 639 1
62 639 1
66 639 1
69 639 1
70 639 1
71 639 1
74 639 1
75 639 1
76 639 1
79 639 1
80 639 1
83 639 1
85 639 1
86 639 1
90 639 1
91 639 1
93 639 1
97 639 1
1 640 1
3 640 1
4 640 1
6 640 1
7 640 1
10 640 1
11 640 1
12 640 1
14 640 1
17 640 1
20 640 1
23 640 1
27 640 1
28 640 1
29 640 1
30 640 1
32 640 1
35 640 1
39 640 1
55 640 1
56 640 1
57 640 1
66 640 1
70 640 1
71 640 1
73 640 1
74 640 1
76 640 1
77 640 1
79 640 1
80 640 1
84 640 1
85 640 1
86 640 1
88 640 1
89 640 1
90 640 1
93 640 1
95 640 1
97 640 1
98 640 1
4 641 1
5 641 1
8 641 1
9 641 1
10 641 1
14 641 1
16 641 1
17 641 1
19 641 1
22 641 1
23 641 1
24 641 1
27 641 1
28 641 1
30 641 1
31 641 1
32 641 1
35 641 1
37 641 1
42 641 1
49 641 1
50 641 1
53 641 1
54 641 1
55 641 1
56 641 1
60 641 1
64 641 1
66 641 1
70 641 1
74 641 1
75 641 1
76 641 1
77 641 1
78 641 1
79 641 1
80 641 1
82 641 1
83 641 1
84 641 1
85 641 1
88 641 1
89 641 1
91 641 1
93 641 1
97 641 1
1 642 1
3 642 1
5 642 1
6 642 1
7 642 1
8 642 1
11 642 1
12 642 1
13 642 1
14 642 1
15 642 1
16 642 1
17 642 1
19 642 1
21 642 1
24 642 1
27 642 1
31 642 1
32 642 1
37 642 1
39 642 1
42 642 1
48 642 1
49 642 1
51 642 1
55 642 1
56 642 1
58 642 1
60 642 1
61 642 1
63 642 1
64 642 1
66 642 1
70 642 1
71 642 1
75 642 1
77 642 1
79 642 1
82 642 1
83 642 1
84 642 1
86 642 1
88 642 1
90 642 1
91 642 1
93 642 1
94 642 1
97 642 1
2 643 1
4 643 1
12 643 1
17 643 1
19 643 1
20 643 1
21 643 1
24 643 1
25 643 1
28 643 1
31 643 1
32 643 1
33 643 1
36 643 1
37 643 1
39 643 1
48 643 1
53 643 1
56 643 1
58 643 1
59 643 1
60 643 1
62 643 1
63 643 1
64 643 1
66 643 1
67 643 1
70 643 1
71 643 1
74 643 1
76 643 1
82 643 1
83 643 1
84 643 1
85 643 1
86 643 1
87 643 1
88 643 1
89 643 1
90 643 1
91 643 1
92 643 1
94 643 1
96 643 1
97 643 1
1 644 1
3 644 1
6 644 1
11 644 1
14 644 1
15 644 1
16 644 1
17 644 1
18 644 1
19 644 1
20 644 1
25 644 1
26 644 1
27 644 1
28 644 1
30 644 1
32 644 1
34 644 1
35 644 1
36 644 1
37 644 1
48 644 1
49 644 1
50 644 1
51 644 1
53 644 1
55 644 1
58 644 1
59 644 1
63 644 1
65 644 1
66 644 1
67 644 1
70 644 1
71 644 1
74 644 1
75 644 1
76 644 1
78 644 1
79 644 1
81 644 1
82 644 1
84 644 1
85 644 1
86 644 1
89 644 1
90 644 1
91 644 1
95 644 1
97 644 1
100 644 1
3 645 1
4 645 1
5 645 1
6 645 1
10 645 1
12 645 1
13 645 1
14 645 1
19 645 1
20 645 1
22 645 1
27 645 1
28 645 1
29 645 1
30 645 1
31 645 1
33 645 1
34 645 1
35 645 1
37 645 1
48 645 1
49 645 1
51 645 1
55 645 1
56 645 1
57 645 1
59 645 1
64 645 1
65 645 1
66 645 1
67 645 1
68 645 1
70 645 1
71 645 1
74 645 1
79 645 1
82 645 1
85 645 1
88 645 1
89 645 1
90 645 1
92 645 1
94 645 1
95 645 1
97 645 1
99 645 1
100 645 1
5 646 1
6 646 1
8 646 1
9 646 1
11 646 1
16 646 1
17 646 1
20 646 1
22 646 1
24 646 1
27 646 1
30 646 1
37 646 1
40 646 1
48 646 1
49 646 1
53 646 1
54 646 1
55 646 1
56 646 1
58 646 1
64 646 1
65 646 1
68 646 1
70 646 1
71 646 1
74 646 1
76 646 1
78 646 1
84 646 1
88 646 1
89 646 1
91 646 1
92 646 1
93 646 1
100 646 1
1 647 1
4 647 1
5 647 1
6 647 1
7 647 1
10 647 1
11 647 1
12 647 1
13 647 1
14 647 1
16 647 1
17 647 1
18 647 1
19 647 1
20 647 1
23 647 1
24 647 1
31 647 1
32 647 1
33 647 1
36 647 1
37 647 1
40 647 1
41 647 1
48 647 1
49 647 1
51 647 1
53 647 1
55 647 1
56 647 1
58 647 1
59 647 1
60 647 1
61 647 1
64 647 1
68 647 1
70 647 1
71 647 1
72 647 1
74 647 1
75 647 1
78 647 1
79 647 1
80 647 1
81 647 1
82 647 1
84 647 1
87 647 1
88 647 1
90 647 1
91 647 1
92 647 1
95 647 1
96 647 1
97 647 1
100 647 1
1 648 1
4 648 1
8 648 1
12 648 1
16 648 1
19 648 1
24 648 1
26 648 1
28 648 1
30 648 1
32 648 1
34 648 1
36 648 1
41 648 1
48 648 1
51 648 1
53 648 1
55 648 1
56 648 1
58 648 1
59 648 1
62 648 1
63 648 1
64 648 1
71 648 1
72 648 1
74 648 1
77 648 1
82 648 1
87 648 1
89 648 1
90 648 1
91 648 1
92 648 1
93 648 1
97 648 1
1 649 1
2 649 1
5 649 1
6 649 1
10 649 1
12 649 1
14 649 1
15 649 1
16 649 1
17 649 1
18 649 1
20 649 1
21 649 1
24 649 1
26 649 1
27 649 1
28 649 1
29 649 1
31 649 1
34 649 1
35 649 1
36 649 1
49 649 1
50 649 1
51 649 1
53 649 1
55 649 1
56 649 1
58 649 1
59 649 1
66 649 1
67 649 1
69 649 1
71 649 1
72 649 1
74 649 1
76 649 1
78 649 1
81 649 1
83 649 1
84 649 1
87 649 1
89 649 1
90 649 1
92 649 1
96 649 1
97 649 1
98 649 1
99 649 1
100 649 1
1 650 1
6 650 1
8 650 1
9 650 1
12 650 1
14 650 1
19 650 1
20 650 1
23 650 1
24 650 1
25 650 1
27 650 1
28 650 1
29 650 1
30 650 1
31 650 1
33 650 1
34 650 1
37 650 1
40 650 1
42 650 1
49 650 1
51 650 1
55 650 1
56 650 1
59 650 1
64 650 1
65 650 1
66 650 1
69 650 1
71 650 1
73 650 1
74 650 1
78 650 1
79 650 1
80 650 1
81 650 1
82 650 1
86 650 1
87 650 1
89 650 1
93 650 1
1 651 1
5 651 1
6 651 1
7 651 1
9 651 1
14 651 1
16 651 1
17 651 1
27 651 1
28 651 1
33 651 1
35 651 1
36 651 1
37 651 1
39 651 1
40 651 1
41 651 1
42 651 1
48 651 1
49 651 1
53 651 1
55 651 1
56 651 1
58 651 1
64 651 1
66 651 1
68 651 1
69 651 1
70 651 1
73 651 1
74 651 1
77 651 1
78 651 1
85 651 1
87 651 1
92 651 1
93 651 1
94 651 1
97 651 1
98 651 1
99 651 1
2 653 1
7 653 1
8 653 1
9 653 1
10 653 1
11 653 1
12 653 1
13 653 1
14 653 1
16 653 1
18 653 1
20 653 1
23 653 1
26 653 1
27 653 1
29 653 1
30 653 1
31 653 1
32 653 1
33 653 1
34 653 1
37 653 1
40 653 1
41 653 1
42 653 1
49 653 1
53 653 1
55 653 1
57 653 1
59 653 1
60 653 1
62 653 1
63 653 1
64 653 1
67 653 1
68 653 1
73 653 1
77 653 1
80 653 1
84 653 1
85 653 1
92 653 1
94 653 1
2 654 1
4 654 1
5 654 1
6 654 1
11 654 1
16 654 1
17 654 1
21 654 1
23 654 1
27 654 1
33 654 1
34 654 1
39 654 1
42 654 1
48 654 1
49 654 1
50 654 1
51 654 1
53 654 1
54 654 1
55 654 1
56 654 1
57 654 1
58 654 1
59 654 1
62 654 1
65 654 1
66 654 1
68 654 1
71 654 1
73 654 1
80 654 1
82 654 1
83 654 1
84 654 1
85 654 1
87 654 1
94 654 1
95 654 1
100 654 1
2 655 1
4 655 1
7 655 1
8 655 1
9 655 1
10 655 1
11 655 1
13 655 1
14 655 1
15 655 1
16 655 1
18 655 1
19 655 1
23 655 1
25 655 1
27 655 1
29 655 1
30 655 1
34 655 1
35 655 1
37 655 1
39 655 1
40 655 1
41 655 1
49 655 1
50 655 1
51 655 1
54 655 1
55 655 1
56 655 1
61 655 1
62 655 1
63 655 1
66 655 1
67 655 1
71 655 1
72 655 1
73 655 1
74 655 1
75 655 1
82 655 1
84 655 1
85 655 1
86 655 1
87 655 1
88 655 1
92 655 1
96 655 1
98 655 1
100 655 1
3 656 1
4 656 1
5 656 1
6 656 1
10 656 1
11 656 1
13 656 1
17 656 1
24 656 1
27 656 1
29 656 1
31 656 1
34 656 1
36 656 1
40 656 1
42 656 1
48 656 1
49 656 1
50 656 1
56 656 1
59 656 1
60 656 1
61 656 1
63 656 1
65 656 1
68 656 1
70 656 1
71 656 1
72 656 1
73 656 1
74 656 1
75 656 1
77 656 1
78 656 1
82 656 1
84 656 1
87 656 1
88 656 1
91 656 1
92 656 1
94 656 1
96 656 1
1 657 1
2 657 1
3 657 1
4 657 1
7 657 1
11 657 1
12 657 1
13 657 1
15 657 1
16 657 1
18 657 1
19 657 1
20 657 1
22 657 1
23 657 1
27 657 1
29 657 1
30 657 1
31 657 1
35 657 1
37 657 1
39 657 1
40 657 1
49 657 1
50 657 1
59 657 1
64 657 1
66 657 1
69 657 1
70 657 1
71 657 1
73 657 1
74 657 1
76 657 1
77 657 1
78 657 1
82 657 1
83 657 1
84 657 1
85 657 1
88 657 1
90 657 1
91 657 1
93 657 1
94 657 1
95 657 1
99 657 1
100 657 1
1 658 1
4 658 1
5 658 1
6 658 1
7 658 1
8 658 1
17 658 1
18 658 1
21 658 1
27 658 1
28 658 1
29 658 1
30 658 1
31 658 1
32 658 1
34 658 1
36 658 1
37 658 1
40 658 1
42 658 1
48 658 1
49 658 1
50 658 1
57 658 1
58 658 1
59 658 1
62 658 1
63 658 1
64 658 1
67 658 1
68 658 1
69 658 1
71 658 1
72 658 1
74 658 1
76 658 1
77 658 1
79 658 1
82 658 1
83 658 1
84 658 1
85 658 1
86 658 1
87 658 1
89 658 1
90 658 1
91 658 1
96 658 1
97 658 1
99 658 1
100 658 1
3 659 1
5 659 1
6 659 1
7 659 1
8 659 1
12 659 1
13 659 1
14 659 1
15 659 1
16 659 1
17 659 1
18 659 1
19 659 1
20 659 1
23 659 1
25 659 1
29 659 1
31 659 1
35 659 1
37 659 1
39 659 1
48 659 1
50 659 1
54 659 1
57 659 1
58 659 1
62 659 1
63 659 1
65 659 1
66 659 1
68 659 1
70 659 1
74 659 1
77 659 1
79 659 1
81 659 1
82 659 1
83 659 1
84 659 1
86 659 1
87 659 1
88 659 1
89 659 1
90 659 1
92 659 1
94 659 1
97 659 1
98 659 1
1 660 1
2 660 1
6 660 1
7 660 1
8 660 1
11 660 1
15 660 1
17 660 1
19 660 1
21 660 1
24 660 1
26 660 1
27 660 1
29 660 1
31 660 1
32 660 1
33 660 1
34 660 1
35 660 1
36 660 1
37 660 1
40 660 1
41 660 1
48 660 1
54 660 1
57 660 1
60 660 1
61 660 1
62 660 1
63 660 1
66 660 1
69 660 1
72 660 1
73 660 1
77 660 1
81 660 1
82 660 1
83 660 1
86 660 1
88 660 1
89 660 1
91 660 1
95 660 1
98 660 1
99 660 1
2 661 1
3 661 1
4 661 1
6 661 1
7 661 1
8 661 1
12 661 1
13 661 1
14 661 1
15 661 1
18 661 1
19 661 1
20 661 1
22 661 1
25 661 1
27 661 1
33 661 1
36 661 1
48 661 1
53 661 1
54 661 1
55 661 1
57 661 1
59 661 1
60 661 1
61 661 1
68 661 1
70 661 1
71 661 1
72 661 1
77 661 1
83 661 1
86 661 1
90 661 1
91 661 1
93 661 1
94 661 1
97 661 1
100 661 1
1 662 1
6 662 1
7 662 1
8 662 1
9 662 1
10 662 1
11 662 1
12 662 1
15 662 1
17 662 1
20 662 1
21 662 1
24 662 1
27 662 1
28 662 1
29 662 1
32 662 1
37 662 1
40 662 1
41 662 1
49 662 1
51 662 1
53 662 1
54 662 1
55 662 1
56 662 1
57 662 1
59 662 1
61 662 1
64 662 1
66 662 1
67 662 1
68 662 1
69 662 1
70 662 1
73 662 1
74 662 1
77 662 1
80 662 1
83 662 1
84 662 1
86 662 1
89 662 1
90 662 1
92 662 1
93 662 1
95 662 1
4 663 1
6 663 1
10 663 1
12 663 1
14 663 1
15 663 1
18 663 1
19 663 1
20 663 1
21 663 1
22 663 1
23 663 1
25 663 1
29 663 1
31 663 1
32 663 1
33 663 1
34 663 1
42 663 1
48 663 1
50 663 1
51 663 1
53 663 1
54 663 1
56 663 1
58 663 1
59 663 1
61 663 1
63 663 1
64 663 1
65 663 1
66 663 1
67 663 1
68 663 1
69 663 1
71 663 1
72 663 1
75 663 1
80 663 1
82 663 1
83 663 1
84 663 1
86 663 1
89 663 1
2 664 1
7 664 1
11 664 1
12 664 1
14 664 1
15 664 1
17 664 1
21 664 1
24 664 1
25 664 1
26 664 1
27 664 1
28 664 1
29 664 1
30 664 1
34 664 1
37 664 1
39 664 1
41 664 1
51 664 1
55 664 1
58 664 1
61 664 1
63 664 1
64 664 1
65 664 1
66 664 1
70 664 1
72 664 1
74 664 1
75 664 1
78 664 1
82 664 1
84 664 1
86 664 1
92 664 1
93 664 1
95 664 1
96 664 1
98 664 1
4 665 1
5 665 1
6 665 1
7 665 1
8 665 1
10 665 1
11 665 1
12 665 1
14 665 1
19 665 1
20 665 1
22 665 1
23 665 1
24 665 1
25 665 1
30 665 1
31 665 1
33 665 1
34 665 1
40 665 1
41 665 1
42 665 1
48 665 1
49 665 1
53 665 1
56 665 1
57 665 1
58 665 1
60 665 1
63 665 1
64 665 1
69 665 1
70 665 1
72 665 1
73 665 1
75 665 1
76 665 1
77 665 1
78 665 1
82 665 1
84 665 1
95 665 1
98 665 1
100 665 1
3 666 1
4 666 1
5 666 1
6 666 1
7 666 1
9 666 1
11 666 1
12 666 1
14 666 1
15 666 1
16 666 1
21 666 1
22 666 1
24 666 1
26 666 1
27 666 1
28 666 1
29 666 1
34 666 1
35 666 1
39 666 1
40 666 1
49 666 1
50 666 1
51 666 1
53 666 1
54 666 1
55 666 1
58 666 1
60 666 1
62 666 1
64 666 1
68 666 1
69 666 1
70 666 1
71 666 1
76 666 1
77 666 1
78 666 1
79 666 1
82 666 1
83 666 1
84 666 1
85 666 1
92 666 1
94 666 1
95 666 1
96 666 1
98 666 1
99 666 1
100 666 1
1 667 1
4 667 1
6 667 1
8 667 1
10 667 1
11 667 1
14 667 1
15 667 1
20 667 1
22 667 1
23 667 1
25 667 1
28 667 1
30 667 1
31 667 1
34 667 1
35 667 1
36 667 1
37 667 1
40 667 1
42 667 1
49 667 1
50 667 1
51 667 1
55 667 1
56 667 1
57 667 1
58 667 1
60 667 1
61 667 1
62 667 1
66 667 1
67 667 1
68 667 1
69 667 1
74 667 1
75 667 1
76 667 1
77 667 1
79 667 1
81 667 1
82 667 1
83 667 1
84 667 1
85 667 1
86 667 1
87 667 1
92 667 1
94 667 1
95 667 1
96 667 1
97 667 1
98 667 1
3 668 1
4 668 1
5 668 1
7 668 1
9 668 1
12 668 1
13 668 1
14 668 1
15 668 1
21 668 1
23 668 1
24 668 1
26 668 1
28 668 1
29 668 1
31 668 1
36 668 1
37 668 1
39 668 1
40 668 1
42 668 1
48 668 1
49 668 1
50 668 1
54 668 1
56 668 1
60 668 1
65 668 1
66 668 1
67 668 1
68 668 1
72 668 1
75 668 1
77 668 1
78 668 1
79 668 1
81 668 1
82 668 1
83 668 1
86 668 1
87 668 1
88 668 1
93 668 1
96 668 1
98 668 1
99 668 1
100 668 1
1 669 1
2 669 1
6 669 1
8 669 1
11 669 1
12 669 1
22 669 1
23 669 1
25 669 1
26 669 1
30 669 1
31 669 1
32 669 1
35 669 1
37 669 1
39 669 1
40 669 1
48 669 1
49 669 1
50 669 1
55 669 1
59 669 1
60 669 1
61 669 1
62 669 1
64 669 1
65 669 1
66 669 1
67 669 1
70 669 1
72 669 1
73 669 1
76 669 1
77 669 1
78 669 1
81 669 1
83 669 1
86 669 1
88 669 1
91 669 1
93 669 1
96 669 1
97 669 1
98 669 1
99 669 1
3 670 1
4 670 1
5 670 1
7 670 1
8 670 1
9 670 1
12 670 1
14 670 1
15 670 1
16 670 1
18 670 1
23 670 1
24 670 1
26 670 1
27 670 1
28 670 1
31 670 1
32 670 1
33 670 1
34 670 1
36 670 1
37 670 1
48 670 1
49 670 1
50 670 1
55 670 1
56 670 1
57 670 1
58 670 1
59 670 1
65 670 1
67 670 1
69 670 1
70 670 1
71 670 1
72 670 1
73 670 1
76 670 1
77 670 1
79 670 1
80 670 1
83 670 1
86 670 1
90 670 1
91 670 1
95 670 1
97 670 1
99 670 1
1 671 1
3 671 1
6 671 1
8 671 1
9 671 1
11 671 1
14 671 1
17 671 1
22 671 1
23 671 1
35 671 1
37 671 1
41 671 1
48 671 1
49 671 1
50 671 1
54 671 1
55 671 1
56 671 1
62 671 1
63 671 1
64 671 1
65 671 1
67 671 1
69 671 1
70 671 1
71 671 1
74 671 1
79 671 1
80 671 1
81 671 1
83 671 1
84 671 1
86 671 1
89 671 1
90 671 1
92 671 1
94 671 1
95 671 1
97 671 1
99 671 1
1 672 1
4 672 1
8 672 1
9 672 1
10 672 1
12 672 1
13 672 1
14 672 1
15 672 1
16 672 1
19 672 1
23 672 1
26 672 1
27 672 1
28 672 1
29 672 1
31 672 1
32 672 1
33 672 1
34 672 1
36 672 1
40 672 1
41 672 1
48 672 1
50 672 1
56 672 1
58 672 1
59 672 1
60 672 1
61 672 1
62 672 1
63 672 1
65 672 1
69 672 1
74 672 1
80 672 1
81 672 1
82 672 1
86 672 1
89 672 1
94 672 1
95 672 1
97 672 1
100 672 1
1 674 1
2 674 1
3 674 1
4 674 1
5 674 1
6 674 1
7 674 1
19 674 1
22 674 1
23 674 1
24 674 1
31 674 1
32 674 1
35 674 1
37 674 1
39 674 1
40 674 1
41 674 1
50 674 1
51 674 1
54 674 1
58 674 1
60 674 1
68 674 1
69 674 1
73 674 1
79 674 1
81 674 1
82 674 1
83 674 1
86 674 1
88 674 1
89 674 1
91 674 1
92 674 1
98 674 1
99 674 1
4 675 1
5 675 1
7 675 1
10 675 1
11 675 1
15 675 1
19 675 1
20 675 1
24 675 1
28 675 1
31 675 1
32 675 1
33 675 1
36 675 1
39 675 1
48 675 1
49 675 1
50 675 1
51 675 1
53 675 1
54 675 1
58 675 1
59 675 1
60 675 1
61 675 1
63 675 1
66 675 1
68 675 1
69 675 1
71 675 1
75 675 1
79 675 1
80 675 1
82 675 1
83 675 1
84 675 1
85 675 1
88 675 1
89 675 1
90 675 1
93 675 1
94 675 1
95 675 1
96 675 1
97 675 1
98 675 1
99 675 1
1 676 1
3 676 1
5 676 1
7 676 1
8 676 1
10 676 1
16 676 1
19 676 1
21 676 1
24 676 1
27 676 1
32 676 1
33 676 1
34 676 1
37 676 1
39 676 1
41 676 1
42 676 1
49 676 1
53 676 1
54 676 1
58 676 1
59 676 1
61 676 1
62 676 1
63 676 1
66 676 1
67 676 1
68 676 1
69 676 1
72 676 1
74 676 1
75 676 1
77 676 1
78 676 1
79 676 1
80 676 1
83 676 1
87 676 1
88 676 1
93 676 1
94 676 1
95 676 1
96 676 1
97 676 1
98 676 1
99 676 1
3 677 1
4 677 1
5 677 1
7 677 1
8 677 1
11 677 1
12 677 1
19 677 1
24 677 1
25 677 1
26 677 1
30 677 1
41 677 1
48 677 1
54 677 1
55 677 1
58 677 1
59 677 1
61 677 1
62 677 1
64 677 1
65 677 1
66 677 1
67 677 1
68 677 1
69 677 1
70 677 1
72 677 1
76 677 1
77 677 1
78 677 1
79 677 1
82 677 1
89 677 1
92 677 1
93 677 1
96 677 1
97 677 1
2 678 1
3 678 1
7 678 1
13 678 1
19 678 1
29 678 1
30 678 1
31 678 1
32 678 1
33 678 1
39 678 1
40 678 1
41 678 1
42 678 1
49 678 1
50 678 1
51 678 1
54 678 1
56 678 1
59 678 1
61 678 1
62 678 1
64 678 1
65 678 1
66 678 1
70 678 1
72 678 1
76 678 1
80 678 1
82 678 1
86 678 1
88 678 1
89 678 1
91 678 1
93 678 1
96 678 1
98 678 1
100 678 1
2 679 1
4 679 1
7 679 1
9 679 1
10 679 1
14 679 1
19 679 1
22 679 1
24 679 1
32 679 1
35 679 1
49 679 1
51 679 1
53 679 1
54 679 1
57 679 1
61 679 1
62 679 1
64 679 1
70 679 1
72 679 1
73 679 1
75 679 1
77 679 1
80 679 1
81 679 1
82 679 1
83 679 1
85 679 1
86 679 1
88 679 1
89 679 1
90 679 1
92 679 1
93 679 1
94 679 1
95 679 1
96 679 1
98 679 1
100 679 1
1 680 1
3 680 1
4 680 1
5 680 1
8 680 1
18 680 1
19 680 1
24 680 1
28 680 1
31 680 1
32 680 1
33 680 1
35 680 1
36 680 1
37 680 1
39 680 1
41 680 1
49 680 1
60 680 1
61 680 1
62 680 1
64 680 1
68 680 1
70 680 1
71 680 1
73 680 1
75 680 1
77 680 1
78 680 1
79 680 1
80 680 1
81 680 1
82 680 1
84 680 1
85 680 1
87 680 1
88 680 1
93 680 1
95 680 1
98 680 1
2 681 1
4 681 1
5 681 1
6 681 1
7 681 1
10 681 1
11 681 1
17 681 1
19 681 1
24 681 1
27 681 1
30 681 1
32 681 1
33 681 1
34 681 1
36 681 1
39 681 1
41 681 1
48 681 1
51 681 1
54 681 1
60 681 1
62 681 1
63 681 1
64 681 1
66 681 1
68 681 1
71 681 1
73 681 1
74 681 1
76 681 1
77 681 1
78 681 1
79 681 1
80 681 1
84 681 1
86 681 1
87 681 1
89 681 1
93 681 1
94 681 1
98 681 1
100 681 1
1 682 1
2 682 1
3 682 1
7 682 1
8 682 1
15 682 1
24 682 1
26 682 1
33 682 1
34 682 1
39 682 1
41 682 1
42 682 1
49 682 1
50 682 1
51 682 1
54 682 1
55 682 1
60 682 1
61 682 1
63 682 1
64 682 1
66 682 1
67 682 1
68 682 1
69 682 1
71 682 1
72 682 1
73 682 1
74 682 1
75 682 1
76 682 1
77 682 1
85 682 1
86 682 1
89 682 1
91 682 1
94 682 1
95 682 1
96 682 1
99 682 1
2 683 1
3 683 1
4 683 1
5 683 1
7 683 1
11 683 1
16 683 1
19 683 1
23 683 1
24 683 1
29 683 1
30 683 1
35 683 1
40 683 1
41 683 1
49 683 1
51 683 1
53 683 1
54 683 1
55 683 1
56 683 1
60 683 1
61 683 1
62 683 1
63 683 1
65 683 1
66 683 1
67 683 1
68 683 1
69 683 1
70 683 1
71 683 1
72 683 1
74 683 1
75 683 1
78 683 1
81 683 1
82 683 1
85 683 1
86 683 1
87 683 1
88 683 1
89 683 1
90 683 1
91 683 1
93 683 1
94 683 1
96 683 1
97 683 1
98 683 1
99 683 1
3 684 1
7 684 1
9 684 1
12 684 1
19 684 1
20 684 1
24 684 1
31 684 1
32 684 1
33 684 1
36 684 1
39 684 1
40 684 1
49 684 1
54 684 1
55 684 1
56 684 1
57 684 1
58 684 1
60 684 1
61 684 1
62 684 1
63 684 1
64 684 1
65 684 1
66 684 1
67 684 1
70 684 1
72 684 1
74 684 1
75 684 1
76 684 1
78 684 1
79 684 1
80 684 1
81 684 1
82 684 1
83 684 1
84 684 1
85 684 1
86 684 1
87 684 1
90 684 1
93 684 1
96 684 1
97 684 1
98 684 1
4 685 1
5 685 1
10 685 1
13 685 1
19 685 1
21 685 1
24 685 1
32 685 1
34 685 1
35 685 1
37 685 1
39 685 1
51 685 1
55 685 1
56 685 1
57 685 1
59 685 1
60 685 1
61 685 1
62 685 1
63 685 1
64 685 1
65 685 1
67 685 1
70 685 1
72 685 1
73 685 1
76 685 1
77 685 1
78 685 1
80 685 1
83 685 1
84 685 1
85 685 1
87 685 1
91 685 1
92 685 1
98 685 1
1 686 1
2 686 1
3 686 1
4 686 1
5 686 1
6 686 1
7 686 1
8 686 1
14 686 1
19 686 1
24 686 1
25 686 1
31 686 1
33 686 1
36 686 1
37 686 1
39 686 1
41 686 1
48 686 1
50 686 1
51 686 1
56 686 1
57 686 1
62 686 1
63 686 1
64 686 1
65 686 1
67 686 1
70 686 1
71 686 1
73 686 1
75 686 1
76 686 1
77 686 1
81 686 1
87 686 1
89 686 1
90 686 1
91 686 1
93 686 1
94 686 1
95 686 1
96 686 1
98 686 1
3 687 1
4 687 1
5 687 1
7 687 1
10 687 1
11 687 1
15 687 1
18 687 1
19 687 1
30 687 1
32 687 1
33 687 1
34 687 1
39 687 1
40 687 1
41 687 1
42 687 1
48 687 1
49 687 1
50 687 1
51 687 1
53 687 1
57 687 1
60 687 1
64 687 1
65 687 1
67 687 1
71 687 1
73 687 1
74 687 1
75 687 1
78 687 1
81 687 1
82 687 1
84 687 1
86 687 1
90 687 1
91 687 1
92 687 1
95 687 1
98 687 1
99 687 1
100 687 1
3 688 1
7 688 1
8 688 1
16 688 1
17 688 1
19 688 1
22 688 1
24 688 1
33 688 1
42 688 1
53 688 1
55 688 1
60 688 1
63 688 1
65 688 1
69 688 1
71 688 1
73 688 1
74 688 1
75 688 1
76 688 1
78 688 1
79 688 1
80 688 1
81 688 1
83 688 1
84 688 1
85 688 1
86 688 1
88 688 1
90 688 1
91 688 1
94 688 1
97 688 1
2 689 1
3 689 1
4 689 1
5 689 1
7 689 1
12 689 1
24 689 1
28 689 1
30 689 1
32 689 1
35 689 1
37 689 1
40 689 1
41 689 1
50 689 1
54 689 1
55 689 1
56 689 1
58 689 1
60 689 1
63 689 1
67 689 1
69 689 1
71 689 1
74 689 1
76 689 1
77 689 1
78 689 1
83 689 1
84 689 1
85 689 1
87 689 1
88 689 1
90 689 1
92 689 1
94 689 1
95 689 1
98 689 1
99 689 1
100 689 1
2 690 1
4 690 1
7 690 1
13 690 1
19 690 1
23 690 1
24 690 1
27 690 1
31 690 1
32 690 1
33 690 1
36 690 1
39 690 1
48 690 1
50 690 1
51 690 1
53 690 1
54 690 1
55 690 1
56 690 1
57 690 1
58 690 1
59 690 1
60 690 1
61 690 1
63 690 1
65 690 1
67 690 1
68 690 1
69 690 1
74 690 1
76 690 1
81 690 1
87 690 1
92 690 1
93 690 1
94 690 1
97 690 1
99 690 1
100 690 1
1 691 1
4 691 1
5 691 1
7 691 1
10 691 1
14 691 1
19 691 1
20 691 1
24 691 1
26 691 1
32 691 1
33 691 1
34 691 1
35 691 1
37 691 1
39 691 1
41 691 1
42 691 1
50 691 1
53 691 1
55 691 1
56 691 1
57 691 1
58 691 1
59 691 1
61 691 1
62 691 1
63 691 1
65 691 1
66 691 1
67 691 1
69 691 1
75 691 1
81 691 1
82 691 1
83 691 1
84 691 1
86 691 1
89 691 1
91 691 1
93 691 1
96 691 1
97 691 1
98 691 1
99 691 1
100 691 1
1 692 1
2 692 1
3 692 1
4 692 1
5 692 1
7 692 1
8 692 1
11 692 1
18 692 1
19 692 1
21 692 1
24 692 1
29 692 1
33 692 1
36 692 1
41 692 1
48 692 1
49 692 1
50 692 1
53 692 1
56 692 1
57 692 1
58 692 1
59 692 1
62 692 1
64 692 1
65 692 1
67 692 1
69 692 1
72 692 1
78 692 1
79 692 1
80 692 1
81 692 1
83 692 1
84 692 1
85 692 1
88 692 1
89 692 1
90 692 1
91 692 1
94 692 1
96 692 1
97 692 1
99 692 1
100 692 1
3 693 1
5 693 1
7 693 1
9 693 1
11 693 1
17 693 1
19 693 1
24 693 1
25 693 1
30 693 1
32 693 1
33 693 1
34 693 1
39 693 1
40 693 1
41 693 1
42 693 1
49 693 1
53 693 1
57 693 1
59 693 1
64 693 1
65 693 1
69 693 1
70 693 1
76 693 1
77 693 1
79 693 1
83 693 1
84 693 1
87 693 1
88 693 1
90 693 1
93 693 1
94 693 1
95 693 1
97 693 1
5 694 1
6 694 1
8 694 1
9 694 1
13 694 1
14 694 1
15 694 1
16 694 1
17 694 1
18 694 1
23 694 1
24 694 1
25 694 1
29 694 1
32 694 1
33 694 1
35 694 1
36 694 1
37 694 1
40 694 1
48 694 1
49 694 1
50 694 1
55 694 1
56 694 1
60 694 1
61 694 1
64 694 1
67 694 1
68 694 1
72 694 1
75 694 1
76 694 1
77 694 1
78 694 1
79 694 1
80 694 1
82 694 1
85 694 1
88 694 1
89 694 1
92 694 1
93 694 1
94 694 1
96 694 1
1 695 1
2 695 1
4 695 1
5 695 1
6 695 1
7 695 1
8 695 1
10 695 1
11 695 1
13 695 1
15 695 1
17 695 1
26 695 1
27 695 1
29 695 1
31 695 1
33 695 1
36 695 1
39 695 1
40 695 1
41 695 1
48 695 1
51 695 1
54 695 1
55 695 1
56 695 1
59 695 1
64 695 1
65 695 1
66 695 1
67 695 1
69 695 1
70 695 1
76 695 1
78 695 1
82 695 1
84 695 1
85 695 1
86 695 1
87 695 1
88 695 1
89 695 1
92 695 1
95 695 1
99 695 1
1 696 1
5 696 1
12 696 1
13 696 1
15 696 1
18 696 1
20 696 1
22 696 1
24 696 1
27 696 1
31 696 1
37 696 1
39 696 1
41 696 1
50 696 1
51 696 1
53 696 1
54 696 1
55 696 1
56 696 1
59 696 1
60 696 1
61 696 1
62 696 1
63 696 1
64 696 1
65 696 1
67 696 1
68 696 1
72 696 1
73 696 1
75 696 1
76 696 1
77 696 1
81 696 1
83 696 1
84 696 1
86 696 1
87 696 1
89 696 1
95 696 1
96 696 1
97 696 1
98 696 1
100 696 1
1 697 1
3 697 1
4 697 1
5 697 1
6 697 1
8 697 1
9 697 1
12 697 1
17 697 1
18 697 1
19 697 1
20 697 1
21 697 1
24 697 1
27 697 1
28 697 1
29 697 1
30 697 1
33 697 1
34 697 1
37 697 1
39 697 1
42 697 1
48 697 1
50 697 1
54 697 1
55 697 1
56 697 1
59 697 1
60 697 1
61 697 1
65 697 1
66 697 1
68 697 1
69 697 1
70 697 1
71 697 1
75 697 1
77 697 1
78 697 1
80 697 1
81 697 1
89 697 1
91 697 1
93 697 1
98 697 1
99 697 1
100 697 1
3 698 1
4 698 1
6 698 1
7 698 1
8 698 1
10 698 1
12 698 1
14 698 1
15 698 1
16 698 1
17 698 1
18 698 1
20 698 1
21 698 1
23 698 1
24 698 1
25 698 1
29 698 1
31 698 1
32 698 1
34 698 1
48 698 1
50 698 1
51 698 1
54 698 1
55 698 1
56 698 1
58 698 1
59 698 1
60 698 1
61 698 1
64 698 1
66 698 1
67 698 1
68 698 1
72 698 1
73 698 1
74 698 1
76 698 1
78 698 1
79 698 1
80 698 1
81 698 1
82 698 1
85 698 1
86 698 1
88 698 1
89 698 1
90 698 1
91 698 1
94 698 1
97 698 1
3 699 1
4 699 1
5 699 1
11 699 1
14 699 1
15 699 1
17 699 1
21 699 1
25 699 1
26 699 1
27 699 1
29 699 1
32 699 1
34 699 1
35 699 1
39 699 1
40 699 1
50 699 1
51 699 1
54 699 1
56 699 1
60 699 1
61 699 1
64 699 1
65 699 1
66 699 1
67 699 1
69 699 1
70 699 1
71 699 1
72 699 1
75 699 1
76 699 1
82 699 1
83 699 1
86 699 1
87 699 1
88 699 1
90 699 1
93 699 1
94 699 1
96 699 1
99 699 1
2 700 1
5 700 1
6 700 1
8 700 1
10 700 1
11 700 1
12 700 1
13 700 1
14 700 1
20 700 1
22 700 1
25 700 1
27 700 1
30 700 1
32 700 1
34 700 1
36 700 1
39 700 1
40 700 1
41 700 1
42 700 1
49 700 1
50 700 1
51 700 1
54 700 1
55 700 1
59 700 1
61 700 1
64 700 1
65 700 1
67 700 1
68 700 1
70 700 1
72 700 1
73 700 1
74 700 1
75 700 1
77 700 1
78 700 1
81 700 1
82 700 1
83 700 1
84 700 1
92 700 1
93 700 1
94 700 1
95 700 1
97 700 1
98 700 1
99 700 1
1 701 1
3 701 1
6 701 1
9 701 1
10 701 1
11 701 1
12 701 1
15 701 1
16 701 1
19 701 1
20 701 1
21 701 1
22 701 1
27 701 1
28 701 1
29 701 1
32 701 1
33 701 1
37 701 1
40 701 1
41 701 1
42 701 1
49 701 1
51 701 1
54 701 1
56 701 1
57 701 1
59 701 1
60 701 1
61 701 1
63 701 1
64 701 1
65 701 1
66 701 1
67 701 1
68 701 1
70 701 1
71 701 1
75 701 1
76 701 1
77 701 1
78 701 1
79 701 1
81 701 1
85 701 1
88 701 1
89 701 1
91 701 1
92 701 1
93 701 1
94 701 1
95 701 1
97 701 1
2 702 1
3 702 1
5 702 1
6 702 1
7 702 1
10 702 1
14 702 1
15 702 1
18 702 1
19 702 1
20 702 1
21 702 1
22 702 1
23 702 1
24 702 1
25 702 1
28 702 1
29 702 1
30 702 1
31 702 1
33 702 1
34 702 1
35 702 1
37 702 1
40 702 1
41 702 1
42 702 1
48 702 1
51 702 1
53 702 1
55 702 1
59 702 1
60 702 1
61 702 1
64 702 1
65 702 1
66 702 1
68 702 1
72 702 1
74 702 1
75 702 1
76 702 1
77 702 1
78 702 1
80 702 1
82 702 1
85 702 1
86 702 1
87 702 1
88 702 1
89 702 1
90 702 1
92 702 1
94 702 1
95 702 1
98 702 1
99 702 1
100 702 1
4 703 1
11 703 1
12 703 1
13 703 1
14 703 1
15 703 1
17 703 1
19 703 1
21 703 1
23 703 1
25 703 1
26 703 1
28 703 1
29 703 1
30 703 1
31 703 1
32 703 1
33 703 1
34 703 1
36 703 1
37 703 1
41 703 1
48 703 1
50 703 1
53 703 1
54 703 1
56 703 1
57 703 1
59 703 1
60 703 1
64 703 1
66 703 1
67 703 1
68 703 1
69 703 1
70 703 1
72 703 1
75 703 1
76 703 1
78 703 1
81 703 1
82 703 1
84 703 1
86 703 1
87 703 1
94 703 1
95 703 1
96 703 1
97 703 1
98 703 1
99 703 1
100 703 1
1 704 1
2 704 1
6 704 1
8 704 1
11 704 1
12 704 1
22 704 1
23 704 1
25 704 1
26 704 1
30 704 1
31 704 1
32 704 1
35 704 1
37 704 1
39 704 1
40 704 1
48 704 1
49 704 1
50 704 1
55 704 1
59 704 1
60 704 1
61 704 1
62 704 1
64 704 1
65 704 1
66 704 1
67 704 1
70 704 1
72 704 1
73 704 1
76 704 1
77 704 1
78 704 1
81 704 1
83 704 1
86 704 1
89 704 1
91 704 1
93 704 1
95 704 1
96 704 1
97 704 1
98 704 1
99 704 1
1 705 1
2 705 1
6 705 1
8 705 1
9 705 1
12 705 1
14 705 1
15 705 1
16 705 1
18 705 1
19 705 1
22 705 1
26 705 1
27 705 1
28 705 1
33 705 1
34 705 1
35 705 1
36 705 1
39 705 1
40 705 1
41 705 1
48 705 1
51 705 1
54 705 1
55 705 1
56 705 1
57 705 1
59 705 1
60 705 1
65 705 1
67 705 1
68 705 1
70 705 1
71 705 1
72 705 1
76 705 1
77 705 1
80 705 1
81 705 1
82 705 1
88 705 1
89 705 1
90 705 1
91 705 1
92 705 1
95 705 1
97 705 1
98 705 1
1 706 1
3 706 1
4 706 1
5 706 1
6 706 1
7 706 1
8 706 1
9 706 1
10 706 1
14 706 1
15 706 1
17 706 1
19 706 1
20 706 1
22 706 1
23 706 1
24 706 1
28 706 1
31 706 1
32 706 1
33 706 1
35 706 1
36 706 1
37 706 1
39 706 1
41 706 1
50 706 1
51 706 1
53 706 1
55 706 1
56 706 1
58 706 1
59 706 1
60 706 1
61 706 1
62 706 1
64 706 1
65 706 1
66 706 1
67 706 1
68 706 1
70 706 1
74 706 1
75 706 1
81 706 1
82 706 1
85 706 1
86 706 1
88 706 1
90 706 1
92 706 1
93 706 1
96 706 1
98 706 1
3 707 1
4 707 1
5 707 1
7 707 1
9 707 1
12 707 1
13 707 1
14 707 1
15 707 1
21 707 1
23 707 1
24 707 1
26 707 1
28 707 1
29 707 1
31 707 1
36 707 1
37 707 1
39 707 1
40 707 1
42 707 1
48 707 1
49 707 1
50 707 1
54 707 1
56 707 1
60 707 1
65 707 1
66 707 1
67 707 1
68 707 1
72 707 1
75 707 1
77 707 1
78 707 1
79 707 1
81 707 1
82 707 1
83 707 1
86 707 1
87 707 1
88 707 1
93 707 1
96 707 1
98 707 1
99 707 1
100 707 1
3 708 1
4 708 1
5 708 1
7 708 1
8 708 1
11 708 1
12 708 1
19 708 1
24 708 1
25 708 1
26 708 1
30 708 1
41 708 1
48 708 1
49 708 1
51 708 1
54 708 1
55 708 1
58 708 1
59 708 1
61 708 1
62 708 1
64 708 1
65 708 1
66 708 1
67 708 1
68 708 1
69 708 1
70 708 1
72 708 1
76 708 1
77 708 1
78 708 1
79 708 1
82 708 1
89 708 1
92 708 1
93 708 1
96 708 1
97 708 1
3 709 1
8 709 1
9 709 1
10 709 1
11 709 1
12 709 1
14 709 1
16 709 1
18 709 1
19 709 1
20 709 1
23 709 1
26 709 1
27 709 1
34 709 1
37 709 1
39 709 1
51 709 1
53 709 1
54 709 1
55 709 1
56 709 1
57 709 1
60 709 1
61 709 1
63 709 1
65 709 1
66 709 1
67 709 1
68 709 1
70 709 1
72 709 1
73 709 1
75 709 1
76 709 1
77 709 1
82 709 1
84 709 1
85 709 1
86 709 1
88 709 1
89 709 1
91 709 1
92 709 1
93 709 1
94 709 1
96 709 1
98 709 1
5 710 1
6 710 1
7 710 1
9 710 1
10 710 1
11 710 1
14 710 1
16 710 1
17 710 1
19 710 1
21 710 1
22 710 1
23 710 1
24 710 1
27 710 1
32 710 1
33 710 1
34 710 1
35 710 1
39 710 1
42 710 1
48 710 1
50 710 1
53 710 1
55 710 1
56 710 1
58 710 1
59 710 1
61 710 1
64 710 1
65 710 1
66 710 1
68 710 1
70 710 1
71 710 1
72 710 1
75 710 1
77 710 1
78 710 1
81 710 1
84 710 1
86 710 1
87 710 1
88 710 1
89 710 1
90 710 1
92 710 1
93 710 1
96 710 1
98 710 1
1 711 1
2 711 1
3 711 1
5 711 1
7 711 1
9 711 1
10 711 1
11 711 1
13 711 1
14 711 1
15 711 1
16 711 1
23 711 1
24 711 1
25 711 1
27 711 1
28 711 1
29 711 1
30 711 1
31 711 1
32 711 1
33 711 1
34 711 1
36 711 1
40 711 1
50 711 1
54 711 1
55 711 1
56 711 1
60 711 1
63 711 1
64 711 1
66 711 1
67 711 1
68 711 1
70 711 1
72 711 1
74 711 1
76 711 1
77 711 1
78 711 1
79 711 1
80 711 1
81 711 1
86 711 1
92 711 1
93 711 1
94 711 1
95 711 1
96 711 1
100 711 1
2 712 1
3 712 1
7 712 1
13 712 1
19 712 1
29 712 1
30 712 1
31 712 1
32 712 1
33 712 1
39 712 1
40 712 1
41 712 1
42 712 1
49 712 1
50 712 1
51 712 1
54 712 1
56 712 1
59 712 1
61 712 1
62 712 1
64 712 1
65 712 1
66 712 1
70 712 1
72 712 1
76 712 1
80 712 1
82 712 1
86 712 1
88 712 1
89 712 1
91 712 1
92 712 1
93 712 1
96 712 1
98 712 1
100 712 1
4 713 1
8 713 1
11 713 1
12 713 1
13 713 1
16 713 1
18 713 1
19 713 1
20 713 1
22 713 1
23 713 1
24 713 1
26 713 1
27 713 1
29 713 1
30 713 1
31 713 1
33 713 1
34 713 1
35 713 1
37 713 1
40 713 1
41 713 1
42 713 1
51 713 1
54 713 1
55 713 1
59 713 1
60 713 1
61 713 1
63 713 1
67 713 1
68 713 1
70 713 1
72 713 1
75 713 1
81 713 1
82 713 1
83 713 1
84 713 1
86 713 1
88 713 1
89 713 1
90 713 1
93 713 1
95 713 1
96 713 1
100 713 1
1 714 1
2 714 1
3 714 1
6 714 1
8 714 1
11 714 1
16 714 1
17 714 1
18 714 1
19 714 1
21 714 1
23 714 1
24 714 1
27 714 1
28 714 1
31 714 1
32 714 1
34 714 1
35 714 1
36 714 1
37 714 1
41 714 1
42 714 1
48 714 1
50 714 1
51 714 1
53 714 1
54 714 1
55 714 1
56 714 1
57 714 1
58 714 1
59 714 1
60 714 1
61 714 1
64 714 1
65 714 1
66 714 1
70 714 1
75 714 1
77 714 1
78 714 1
79 714 1
81 714 1
83 714 1
88 714 1
93 714 1
94 714 1
98 714 1
100 714 1
