%%MatrixMarket matrix coordinate integer general
315 714 2520
1 1 1
106 1 1
211 1 1
2 2 1
107 2 1
212 2 1
3 3 1
108 3 1
213 3 1
4 4 1
109 4 1
214 4 1
5 5 1
110 5 1
215 5 1
6 6 1
111 6 1
216 6 1
7 7 1
112 7 1
217 7 1
8 8 1
113 8 1
218 8 1
9 9 1
114 9 1
219 9 1
10 10 1
115 10 1
220 10 1
11 11 1
116 11 1
221 11 1
12 12 1
117 12 1
222 12 1
13 13 1
118 13 1
223 13 1
14 14 1
119 14 1
224 14 1
15 15 1
120 15 1
225 15 1
16 16 1
121 16 1
226 16 1
17 17 1
122 17 1
227 17 1
18 18 1
123 18 1
228 18 1
19 19 1
124 19 1
229 19 1
20 20 1
125 20 1
230 20 1
21 21 1
126 21 1
231 21 1
22 22 1
127 22 1
232 22 1
23 23 1
128 23 1
233 23 1
24 24 1
129 24 1
234 24 1
25 25 1
130 25 1
235 25 1
26 26 1
131 26 1
236 26 1
27 27 1
132 27 1
237 27 1
28 28 1
133 28 1
238 28 1
29 29 1
134 29 1
239 29 1
30 30 1
135 30 1
240 30 1
31 31 1
136 31 1
241 31 1
32 32 1
137 32 1
242 32 1
33 33 1
138 33 1
243 33 1
34 34 1
139 34 1
244 34 1
35 35 1
140 35 1
245 35 1
36 36 1
141 36 1
246 36 1
37 37 1
142 37 1
247 37 1
38 38 1
143 38 1
248 38 1
39 39 1
144 39 1
249 39 1
40 40 1
145 40 1
250 40 1
41 41 1
146 41 1
251 41 1
42 42 1
147 42 1
252 42 1
43 43 1
148 43 1
253 43 1
44 44 1
149 44 1
254 44 1
45 45 1
150 45 1
255 45 1
46 46 1
151 46 1
256 46 1
47 47 1
152 47 1
257 47 1
48 48 1
153 48 1
258 48 1
49 49 1
154 49 1
259 49 1
50 50 1
155 50 1
260 50 1
51 51 1
156 51 1
261 51 1
52 52 1
157 52 1
262 52 1
53 53 1
158 53 1
263 53 1
54 54 1
159 54 1
264 54 1
55 55 1
160 55 1
265 55 1
56 56 1
161 56 1
266 56 1
57 57 1
162 57 1
267 57 1
58 58 1
163 58 1
268 58 1
59 59 1
164 59 1
269 59 1
60 60 1
165 60 1
270 60 1
61 61 1
166 61 1
271 61 1
62 62 1
167 62 1
272 62 1
63 63 1
168 63 1
273 63 1
64 64 1
169 64 1
274 64 1
65 65 1
170 65 1
275 65 1
66 66 1
171 66 1
276 66 1
67 67 1
172 67 1
277 67 1
68 68 1
173 68 1
278 68 1
69 69 1
174 69 1
279 69 1
70 70 1
175 70 1
280 70 1
71 71 1
176 71 1
281 71 1
72 72 1
177 72 1
282 72 1
73 73 1
178 73 1
283 73 1
74 74 1
179 74 1
284 74 1
75 75 1
180 75 1
285 75 1
76 76 1
181 76 1
286 76 1
77 77 1
182 77 1
287 77 1
78 78 1
183 78 1
288 78 1
79 79 1
184 79 1
289 79 1
80 80 1
185 80 1
290 80 1
81 81 1
186 81 1
291 81 1
82 82 1
187 82 1
292 82 1
83 83 1
188 83 1
293 83 1
84 84 1
189 84 1
294 84 1
85 85 1
190 85 1
295 85 1
86 86 1
191 86 1
296 86 1
87 87 1
192 87 1
297 87 1
88 88 1
193 88 1
298 88 1
89 89 1
194 89 1
299 89 1
90 90 1
195 90 1
300 90 1
91 91 1
196 91 1
301 91 1
92 92 1
197 92 1
302 92 1
93 93 1
198 93 1
303 93 1
94 94 1
199 94 1
304 94 1
95 95 1
200 95 1
305 95 1
96 96 1
201 96 1
306 96 1
97 97 1
202 97 1
307 97 1
98 98 1
203 98 1
308 98 1
99 99 1
204 99 1
309 99 1
100 100 1
205 100 1
310 100 1
101 101 1
206 101 1
311 101 1
102 102 1
207 102 1
312 102 1
103 103 1
208 103 1
313 103 1
104 104 1
209 104 1
314 104 1
105 105 1
210 105 1
315 105 1
1 106 1
110 106 1
225 106 1
2 107 1
111 107 1
226 107 1
3 108 1
112 108 1
227 108 1
4 109 1
113 109 1
228 109 1
5 110 1
114 110 1
229 110 1
6 111 1
115 111 1
230 111 1
7 112 1
116 112 1
231 112 1
8 113 1
117 113 1
211 113 1
9 114 1
118 114 1
212 114 1
10 115 1
119 115 1
213 115 1
11 116 1
120 116 1
214 116 1
12 117 1
121 117 1
215 117 1
13 118 1
122 118 1
216 118 1
14 119 1
123 119 1
217 119 1
15 120 1
124 120 1
218 120 1
16 121 1
125 121 1
219 121 1
17 122 1
126 122 1
220 122 1
18 123 1
106 123 1
221 123 1
19 124 1
107 124 1
222 124 1
20 125 1
108 125 1
223 125 1
21 126 1
109 126 1
224 126 1
22 127 1
131 127 1
246 127 1
23 128 1
132 128 1
247 128 1
24 129 1
133 129 1
248 129 1
25 130 1
134 130 1
249 130 1
26 131 1
135 131 1
250 131 1
27 132 1
136 132 1
251 132 1
28 133 1
137 133 1
252 133 1
29 134 1
138 134 1
232 134 1
30 135 1
139 135 1
233 135 1
31 136 1
140 136 1
234 136 1
32 137 1
141 137 1
235 137 1
33 138 1
142 138 1
236 138 1
34 139 1
143 139 1
237 139 1
35 140 1
144 140 1
238 140 1
36 141 1
145 141 1
239 141 1
37 142 1
146 142 1
240 142 1
38 143 1
147 143 1
241 143 1
39 144 1
127 144 1
242 144 1
40 145 1
128 145 1
243 145 1
41 146 1
129 146 1
244 146 1
42 147 1
130 147 1
245 147 1
43 148 1
152 148 1
267 148 1
44 149 1
153 149 1
268 149 1
45 150 1
154 150 1
269 150 1
46 151 1
155 151 1
270 151 1
47 152 1
156 152 1
271 152 1
48 153 1
157 153 1
272 153 1
49 154 1
158 154 1
273 154 1
50 155 1
159 155 1
253 155 1
51 156 1
160 156 1
254 156 1
52 157 1
161 157 1
255 157 1
53 158 1
162 158 1
256 158 1
54 159 1
163 159 1
257 159 1
55 160 1
164 160 1
258 160 1
56 161 1
165 161 1
259 161 1
57 162 1
166 162 1
260 162 1
58 163 1
167 163 1
261 163 1
59 164 1
168 164 1
262 164 1
60 165 1
148 165 1
263 165 1
61 166 1
149 166 1
264 166 1
62 167 1
150 167 1
265 167 1
63 168 1
151 168 1
266 168 1
64 169 1
173 169 1
288 169 1
65 170 1
174 170 1
289 170 1
66 171 1
175 171 1
290 171 1
67 172 1
176 172 1
291 172 1
68 173 1
177 173 1
292 173 1
69 174 1
178 174 1
293 174 1
70 175 1
179 175 1
294 175 1
71 176 1
180 176 1
274 176 1
72 177 1
181 177 1
275 177 1
73 178 1
182 178 1
276 178 1
74 179 1
183 179 1
277 179 1
75 180 1
184 180 1
278 180 1
76 181 1
185 181 1
279 181 1
77 182 1
186 182 1
280 182 1
78 183 1
187 183 1
281 183 1
79 184 1
188 184 1
282 184 1
80 185 1
189 185 1
283 185 1
81 186 1
169 186 1
284 186 1
82 187 1
170 187 1
285 187 1
83 188 1
171 188 1
286 188 1
84 189 1
172 189 1
287 189 1
85 190 1
194 190 1
309 190 1
86 191 1
195 191 1
310 191 1
87 192 1
196 192 1
311 192 1
88 193 1
197 193 1
312 193 1
89 194 1
198 194 1
313 194 1
90 195 1
199 195 1
314 195 1
91 196 1
200 196 1
315 196 1
92 197 1
201 197 1
295 197 1
93 198 1
202 198 1
296 198 1
94 199 1
203 199 1
297 199 1
95 200 1
204 200 1
298 200 1
96 201 1
205 201 1
299 201 1
97 202 1
206 202 1
300 202 1
98 203 1
207 203 1
301 203 1
99 204 1
208 204 1
302 204 1
100 205 1
209 205 1
303 205 1
101 206 1
210 206 1
304 206 1
102 207 1
190 207 1
305 207 1
103 208 1
191 208 1
306 208 1
104 209 1
192 209 1
307 209 1
105 210 1
193 210 1
308 210 1
1 211 1
111 211 1
229 211 1
2 212 1
112 212 1
230 212 1
3 213 1
113 213 1
231 213 1
4 214 1
114 214 1
211 214 1
5 215 1
115 215 1
212 215 1
6 216 1
116 216 1
213 216 1
7 217 1
117 217 1
214 217 1
8 218 1
118 218 1
215 218 1
9 219 1
119 219 1
216 219 1
10 220 1
120 220 1
217 220 1
11 221 1
121 221 1
218 221 1
12 222 1
122 222 1
219 222 1
13 223 1
123 223 1
220 223 1
14 224 1
124 224 1
221 224 1
15 225 1
125 225 1
222 225 1
16 226 1
126 226 1
223 226 1
17 227 1
106 227 1
224 227 1
18 228 1
107 228 1
225 228 1
19 229 1
108 229 1
226 229 1
20 230 1
109 230 1
227 230 1
21 231 1
110 231 1
228 231 1
22 232 1
132 232 1
250 232 1
23 233 1
133 233 1
251 233 1
24 234 1
134 234 1
252 234 1
25 235 1
135 235 1
232 235 1
26 236 1
136 236 1
233 236 1
27 237 1
137 237 1
234 237 1
28 238 1
138 238 1
235 238 1
29 239 1
139 239 1
236 239 1
30 240 1
140 240 1
237 240 1
31 241 1
141 241 1
238 241 1
32 242 1
142 242 1
239 242 1
33 243 1
143 243 1
240 243 1
34 244 1
144 244 1
241 244 1
35 245 1
145 245 1
242 245 1
36 246 1
146 246 1
243 246 1
37 247 1
147 247 1
244 247 1
38 248 1
127 248 1
245 248 1
39 249 1
128 249 1
246 249 1
40 250 1
129 250 1
247 250 1
41 251 1
130 251 1
248 251 1
42 252 1
131 252 1
249 252 1
43 253 1
153 253 1
271 253 1
44 254 1
154 254 1
272 254 1
45 255 1
155 255 1
273 255 1
46 256 1
156 256 1
253 256 1
47 257 1
157 257 1
254 257 1
48 258 1
158 258 1
255 258 1
49 259 1
159 259 1
256 259 1
50 260 1
160 260 1
257 260 1
51 261 1
161 261 1
258 261 1
52 262 1
162 262 1
259 262 1
53 263 1
163 263 1
260 263 1
54 264 1
164 264 1
261 264 1
55 265 1
165 265 1
262 265 1
56 266 1
166 266 1
263 266 1
57 267 1
167 267 1
264 267 1
58 268 1
168 268 1
265 268 1
59 269 1
148 269 1
266 269 1
60 270 1
149 270 1
267 270 1
61 271 1
150 271 1
268 271 1
62 272 1
151 272 1
269 272 1
63 273 1
152 273 1
270 273 1
64 274 1
174 274 1
292 274 1
65 275 1
175 275 1
293 275 1
66 276 1
176 276 1
294 276 1
67 277 1
177 277 1
274 277 1
68 278 1
178 278 1
275 278 1
69 279 1
179 279 1
276 279 1
70 280 1
180 280 1
277 280 1
71 281 1
181 281 1
278 281 1
72 282 1
182 282 1
279 282 1
73 283 1
183 283 1
280 283 1
74 284 1
184 284 1
281 284 1
75 285 1
185 285 1
282 285 1
76 286 1
186 286 1
283 286 1
77 287 1
187 287 1
284 287 1
78 288 1
188 288 1
285 288 1
79 289 1
189 289 1
286 289 1
80 290 1
169 290 1
287 290 1
81 291 1
170 291 1
288 291 1
82 292 1
171 292 1
289 292 1
83 293 1
172 293 1
290 293 1
84 294 1
173 294 1
291 294 1
85 295 1
195 295 1
313 295 1
86 296 1
196 296 1
314 296 1
87 297 1
197 297 1
315 297 1
88 298 1
198 298 1
295 298 1
89 299 1
199 299 1
296 299 1
90 300 1
200 300 1
297 300 1
91 301 1
201 301 1
298 301 1
92 302 1
202 302 1
299 302 1
93 303 1
203 303 1
300 303 1
94 304 1
204 304 1
301 304 1
95 305 1
205 305 1
302 305 1
96 306 1
206 306 1
303 306 1
97 307 1
207 307 1
304 307 1
98 308 1
208 308 1
305 308 1
99 309 1
209 309 1
306 309 1
100 310 1
210 310 1
307 310 1
101 311 1
190 311 1
308 311 1
102 312 1
191 312 1
309 312 1
103 313 1
192 313 1
310 313 1
104 314 1
193 314 1
311 314 1
105 315 1
194 315 1
312 315 1
1 316 1
113 316 1
223 316 1
2 317 1
114 317 1
224 317 1
3 318 1
115 318 1
225 318 1
4 319 1
116 319 1
226 319 1
5 320 1
117 320 1
227 320 1
6 321 1
118 321 1
228 321 1
7 322 1
119 322 1
229 322 1
8 323 1
120 323 1
230 323 1
9 324 1
121 324 1
231 324 1
10 325 1
122 325 1
211 325 1
11 326 1
123 326 1
212 326 1
12 327 1
124 327 1
213 327 1
13 328 1
125 328 1
214 328 1
14 329 1
126 329 1
215 329 1
15 330 1
106 330 1
216 330 1
16 331 1
107 331 1
217 331 1
17 332 1
108 332 1
218 332 1
18 333 1
109 333 1
219 333 1
19 334 1
110 334 1
220 334 1
20 335 1
111 335 1
221 335 1
21 336 1
112 336 1
222 336 1
22 337 1
134 337 1
244 337 1
23 338 1
135 338 1
245 338 1
24 339 1
136 339 1
246 339 1
25 340 1
137 340 1
247 340 1
26 341 1
138 341 1
248 341 1
27 342 1
139 342 1
249 342 1
28 343 1
140 343 1
250 343 1
29 344 1
141 344 1
251 344 1
30 345 1
142 345 1
252 345 1
31 346 1
143 346 1
232 346 1
32 347 1
144 347 1
233 347 1
33 348 1
145 348 1
234 348 1
34 349 1
146 349 1
235 349 1
35 350 1
147 350 1
236 350 1
36 351 1
127 351 1
237 351 1
37 352 1
128 352 1
238 352 1
38 353 1
129 353 1
239 353 1
39 354 1
130 354 1
240 354 1
40 355 1
131 355 1
241 355 1
41 356 1
132 356 1
242 356 1
42 357 1
133 357 1
243 357 1
43 358 1
155 358 1
265 358 1
44 359 1
156 359 1
266 359 1
45 360 1
157 360 1
267 360 1
46 361 1
158 361 1
268 361 1
47 362 1
159 362 1
269 362 1
48 363 1
160 363 1
270 363 1
49 364 1
161 364 1
271 364 1
50 365 1
162 365 1
272 365 1
51 366 1
163 366 1
273 366 1
52 367 1
164 367 1
253 367 1
53 368 1
165 368 1
254 368 1
54 369 1
166 369 1
255 369 1
55 370 1
167 370 1
256 370 1
56 371 1
168 371 1
257 371 1
57 372 1
148 372 1
258 372 1
58 373 1
149 373 1
259 373 1
59 374 1
150 374 1
260 374 1
60 375 1
151 375 1
261 375 1
61 376 1
152 376 1
262 376 1
62 377 1
153 377 1
263 377 1
63 378 1
154 378 1
264 378 1
64 379 1
176 379 1
286 379 1
65 380 1
177 380 1
287 380 1
66 381 1
178 381 1
288 381 1
67 382 1
179 382 1
289 382 1
68 383 1
180 383 1
290 383 1
69 384 1
181 384 1
291 384 1
70 385 1
182 385 1
292 385 1
71 386 1
183 386 1
293 386 1
72 387 1
184 387 1
294 387 1
73 388 1
185 388 1
274 388 1
74 389 1
186 389 1
275 389 1
75 390 1
187 390 1
276 390 1
76 391 1
188 391 1
277 391 1
77 392 1
189 392 1
278 392 1
78 393 1
169 393 1
279 393 1
79 394 1
170 394 1
280 394 1
80 395 1
171 395 1
281 395 1
81 396 1
172 396 1
282 396 1
82 397 1
173 397 1
283 397 1
83 398 1
174 398 1
284 398 1
84 399 1
175 399 1
285 399 1
85 400 1
197 400 1
307 400 1
86 401 1
198 401 1
308 401 1
87 402 1
199 402 1
309 402 1
88 403 1
200 403 1
310 403 1
89 404 1
201 404 1
311 404 1
90 405 1
202 405 1
312 405 1
91 406 1
203 406 1
313 406 1
92 407 1
204 407 1
314 407 1
93 408 1
205 408 1
315 408 1
94 409 1
206 409 1
295 409 1
95 410 1
207 410 1
296 410 1
96 411 1
208 411 1
297 411 1
97 412 1
209 412 1
298 412 1
98 413 1
210 413 1
299 413 1
99 414 1
190 414 1
300 414 1
100 415 1
191 415 1
301 415 1
101 416 1
192 416 1
302 416 1
102 417 1
193 417 1
303 417 1
103 418 1
194 418 1
304 418 1
104 419 1
195 419 1
305 419 1
105 420 1
196 420 1
306 420 1
1 421 1
123 421 1
222 421 1
2 422 1
124 422 1
223 422 1
3 423 1
125 423 1
224 423 1
4 424 1
126 424 1
225 424 1
5 425 1
106 425 1
226 425 1
6 426 1
107 426 1
227 426 1
7 427 1
108 427 1
228 427 1
8 428 1
109 428 1
229 428 1
9 429 1
110 429 1
230 429 1
10 430 1
111 430 1
231 430 1
11 431 1
112 431 1
211 431 1
12 432 1
113 432 1
212 432 1
13 433 1
114 433 1
213 433 1
14 434 1
115 434 1
214 434 1
15 435 1
116 435 1
215 435 1
16 436 1
117 436 1
216 436 1
17 437 1
118 437 1
217 437 1
18 438 1
119 438 1
218 438 1
19 439 1
120 439 1
219 439 1
20 440 1
121 440 1
220 440 1
21 441 1
122 441 1
221 441 1
22 442 1
144 442 1
243 442 1
23 443 1
145 443 1
244 443 1
24 444 1
146 444 1
245 444 1
25 445 1
147 445 1
246 445 1
26 446 1
127 446 1
247 446 1
27 447 1
128 447 1
248 447 1
28 448 1
129 448 1
249 448 1
29 449 1
130 449 1
250 449 1
30 450 1
131 450 1
251 450 1
31 451 1
132 451 1
252 451 1
32 452 1
133 452 1
232 452 1
33 453 1
134 453 1
233 453 1
34 454 1
135 454 1
234 454 1
35 455 1
136 455 1
235 455 1
36 456 1
137 456 1
236 456 1
37 457 1
138 457 1
237 457 1
38 458 1
139 458 1
238 458 1
39 459 1
140 459 1
239 459 1
40 460 1
141 460 1
240 460 1
41 461 1
142 461 1
241 461 1
42 462 1
143 462 1
242 462 1
43 463 1
165 463 1
264 463 1
44 464 1
166 464 1
265 464 1
45 465 1
167 465 1
266 465 1
46 466 1
168 466 1
267 466 1
47 467 1
148 467 1
268 467 1
48 468 1
149 468 1
269 468 1
49 469 1
150 469 1
270 469 1
50 470 1
151 470 1
271 470 1
51 471 1
152 471 1
272 471 1
52 472 1
153 472 1
273 472 1
53 473 1
154 473 1
253 473 1
54 474 1
155 474 1
254 474 1
55 475 1
156 475 1
255 475 1
56 476 1
157 476 1
256 476 1
57 477 1
158 477 1
257 477 1
58 478 1
159 478 1
258 478 1
59 479 1
160 479 1
259 479 1
60 480 1
161 480 1
260 480 1
61 481 1
162 481 1
261 481 1
62 482 1
163 482 1
262 482 1
63 483 1
164 483 1
263 483 1
64 484 1
186 484 1
285 484 1
65 485 1
187 485 1
286 485 1
66 486 1
188 486 1
287 486 1
67 487 1
189 487 1
288 487 1
68 488 1
169 488 1
289 488 1
69 489 1
170 489 1
290 489 1
70 490 1
171 490 1
291 490 1
71 491 1
172 491 1
292 491 1
72 492 1
173 492 1
293 492 1
73 493 1
174 493 1
294 493 1
74 494 1
175 494 1
274 494 1
75 495 1
176 495 1
275 495 1
76 496 1
177 496 1
276 496 1
77 497 1
178 497 1
277 497 1
78 498 1
179 498 1
278 498 1
79 499 1
180 499 1
279 499 1
80 500 1
181 500 1
280 500 1
81 501 1
182 501 1
281 501 1
82 502 1
183 502 1
282 502 1
83 503 1
184 503 1
283 503 1
84 504 1
185 504 1
284 504 1
85 505 1
207 505 1
306 505 1
86 506 1
208 506 1
307 506 1
87 507 1
209 507 1
308 507 1
88 508 1
210 508 1
309 508 1
89 509 1
190 509 1
310 509 1
90 510 1
191 510 1
311 510 1
91 511 1
192 511 1
312 511 1
92 512 1
193 512 1
313 512 1
93 513 1
194 513 1
314 513 1
94 514 1
195 514 1
315 514 1
95 515 1
196 515 1
295 515 1
96 516 1
197 516 1
296 516 1
97 517 1
198 517 1
297 517 1
98 518 1
199 518 1
298 518 1
99 519 1
200 519 1
299 519 1
100 520 1
201 520 1
300 520 1
101 521 1
202 521 1
301 521 1
102 522 1
203 522 1
302 522 1
103 523 1
204 523 1
303 523 1
104 524 1
205 524 1
304 524 1
105 525 1
206 525 1
305 525 1
1 526 1
22 526 1
43 526 1
64 526 1
85 526 1
2 527 1
23 527 1
44 527 1
65 527 1
86 527 1
3 528 1
24 528 1
45 528 1
66 528 1
87 528 1
4 529 1
25 529 1
46 529 1
67 529 1
88 529 1
5 530 1
26 530 1
47 530 1
68 530 1
89 530 1
6 531 1
27 531 1
48 531 1
69 531 1
90 531 1
7 532 1
28 532 1
49 532 1
70 532 1
91 532 1
8 533 1
29 533 1
50 533 1
71 533 1
92 533 1
9 534 1
30 534 1
51 534 1
72 534 1
93 534 1
10 535 1
31 535 1
52 535 1
73 535 1
94 535 1
11 536 1
32 536 1
53 536 1
74 536 1
95 536 1
12 537 1
33 537 1
54 537 1
75 537 1
96 537 1
13 538 1
34 538 1
55 538 1
76 538 1
97 538 1
14 539 1
35 539 1
56 539 1
77 539 1
98 539 1
15 540 1
36 540 1
57 540 1
78 540 1
99 540 1
16 541 1
37 541 1
58 541 1
79 541 1
100 541 1
17 542 1
38 542 1
59 542 1
80 542 1
101 542 1
18 543 1
39 543 1
60 543 1
81 543 1
102 543 1
19 544 1
40 544 1
61 544 1
82 544 1
103 544 1
20 545 1
41 545 1
62 545 1
83 545 1
104 545 1
21 546 1
42 546 1
63 546 1
84 546 1
105 546 1
1 547 1
39 547 1
59 547 1
78 547 1
89 547 1
2 548 1
40 548 1
60 548 1
79 548 1
90 548 1
3 549 1
41 549 1
61 549 1
80 549 1
91 549 1
4 550 1
42 550 1
62 550 1
81 550 1
92 550 1
5 551 1
22 551 1
63 551 1
82 551 1
93 551 1
6 552 1
23 552 1
43 552 1
83 552 1
94 552 1
7 553 1
24 553 1
44 553 1
84 553 1
95 553 1
8 554 1
25 554 1
45 554 1
64 554 1
96 554 1
9 555 1
26 555 1
46 555 1
65 555 1
97 555 1
10 556 1
27 556 1
47 556 1
66 556 1
98 556 1
11 557 1
28 557 1
48 557 1
67 557 1
99 557 1
12 558 1
29 558 1
49 558 1
68 558 1
100 558 1
13 559 1
30 559 1
50 559 1
69 559 1
101 559 1
14 560 1
31 560 1
51 560 1
70 560 1
102 560 1
15 561 1
32 561 1
52 561 1
71 561 1
103 561 1
16 562 1
33 562 1
53 562 1
72 562 1
104 562 1
17 563 1
34 563 1
54 563 1
73 563 1
105 563 1
18 564 1
35 564 1
55 564 1
74 564 1
85 564 1
19 565 1
36 565 1
56 565 1
75 565 1
86 565 1
20 566 1
37 566 1
57 566 1
76 566 1
87 566 1
21 567 1
38 567 1
58 567 1
77 567 1
88 567 1
1 568 1
29 568 1
46 568 1
73 568 1
95 568 1
2 569 1
30 569 1
47 569 1
74 569 1
96 569 1
3 570 1
31 570 1
48 570 1
75 570 1
97 570 1
4 571 1
32 571 1
49 571 1
76 571 1
98 571 1
5 572 1
33 572 1
50 572 1
77 572 1
99 572 1
6 573 1
34 573 1
51 573 1
78 573 1
100 573 1
7 574 1
35 574 1
52 574 1
79 574 1
101 574 1
8 575 1
36 575 1
53 575 1
80 575 1
102 575 1
9 576 1
37 576 1
54 576 1
81 576 1
103 576 1
10 577 1
38 577 1
55 577 1
82 577 1
104 577 1
11 578 1
39 578 1
56 578 1
83 578 1
105 578 1
12 579 1
40 579 1
57 579 1
84 579 1
85 579 1
13 580 1
41 580 1
58 580 1
64 580 1
86 580 1
14 581 1
42 581 1
59 581 1
65 581 1
87 581 1
15 582 1
22 582 1
60 582 1
66 582 1
88 582 1
16 583 1
23 583 1
61 583 1
67 583 1
89 583 1
17 584 1
24 584 1
62 584 1
68 584 1
90 584 1
18 585 1
25 585 1
63 585 1
69 585 1
91 585 1
19 586 1
26 586 1
43 586 1
70 586 1
92 586 1
20 587 1
27 587 1
44 587 1
71 587 1
93 587 1
21 588 1
28 588 1
45 588 1
72 588 1
94 588 1
106 589 1
127 589 1
148 589 1
169 589 1
190 589 1
107 590 1
128 590 1
149 590 1
170 590 1
191 590 1
108 591 1
129 591 1
150 591 1
171 591 1
192 591 1
109 592 1
130 592 1
151 592 1
172 592 1
193 592 1
110 593 1
131 593 1
152 593 1
173 593 1
194 593 1
111 594 1
132 594 1
153 594 1
174 594 1
195 594 1
112 595 1
133 595 1
154 595 1
175 595 1
196 595 1
113 596 1
134 596 1
155 596 1
176 596 1
197 596 1
114 597 1
135 597 1
156 597 1
177 597 1
198 597 1
115 598 1
136 598 1
157 598 1
178 598 1
199 598 1
116 599 1
137 599 1
158 599 1
179 599 1
200 599 1
117 600 1
138 600 1
159 600 1
180 600 1
201 600 1
118 601 1
139 601 1
160 601 1
181 601 1
202 601 1
119 602 1
140 602 1
161 602 1
182 602 1
203 602 1
120 603 1
141 603 1
162 603 1
183 603 1
204 603 1
121 604 1
142 604 1
163 604 1
184 604 1
205 604 1
122 605 1
143 605 1
164 605 1
185 605 1
206 605 1
123 606 1
144 606 1
165 606 1
186 606 1
207 606 1
124 607 1
145 607 1
166 607 1
187 607 1
208 607 1
125 608 1
146 608 1
167 608 1
188 608 1
209 608 1
126 609 1
147 609 1
168 609 1
189 609 1
210 609 1
106 610 1
144 610 1
164 610 1
183 610 1
194 610 1
107 611 1
145 611 1
165 611 1
184 611 1
195 611 1
108 612 1
146 612 1
166 612 1
185 612 1
196 612 1
109 613 1
147 613 1
167 613 1
186 613 1
197 613 1
110 614 1
127 614 1
168 614 1
187 614 1
198 614 1
111 615 1
128 615 1
148 615 1
188 615 1
199 615 1
112 616 1
129 616 1
149 616 1
189 616 1
200 616 1
113 617 1
130 617 1
150 617 1
169 617 1
201 617 1
114 618 1
131 618 1
151 618 1
170 618 1
202 618 1
115 619 1
132 619 1
152 619 1
171 619 1
203 619 1
116 620 1
133 620 1
153 620 1
172 620 1
204 620 1
117 621 1
134 621 1
154 621 1
173 621 1
205 621 1
118 622 1
135 622 1
155 622 1
174 622 1
206 622 1
119 623 1
136 623 1
156 623 1
175 623 1
207 623 1
120 624 1
137 624 1
157 624 1
176 624 1
208 624 1
121 625 1
138 625 1
158 625 1
177 625 1
209 625 1
122 626 1
139 626 1
159 626 1
178 626 1
210 626 1
123 627 1
140 627 1
160 627 1
179 627 1
190 627 1
124 628 1
141 628 1
161 628 1
180 628 1
191 628 1
125 629 1
142 629 1
162 629 1
181 629 1
192 629 1
126 630 1
143 630 1
163 630 1
182 630 1
193 630 1
106 631 1
134 631 1
151 631 1
178 631 1
200 631 1
107 632 1
135 632 1
152 632 1
179 632 1
201 632 1
108 633 1
136 633 1
153 633 1
180 633 1
202 633 1
109 634 1
137 634 1
154 634 1
181 634 1
203 634 1
110 635 1
138 635 1
155 635 1
182 635 1
204 635 1
111 636 1
139 636 1
156 636 1
183 636 1
205 636 1
112 637 1
140 637 1
157 637 1
184 637 1
206 637 1
113 638 1
141 638 1
158 638 1
185 638 1
207 638 1
114 639 1
142 639 1
159 639 1
186 639 1
208 639 1
115 640 1
143 640 1
160 640 1
187 640 1
209 640 1
116 641 1
144 641 1
161 641 1
188 641 1
210 641 1
117 642 1
145 642 1
162 642 1
189 642 1
190 642 1
118 643 1
146 643 1
163 643 1
169 643 1
191 643 1
119 644 1
147 644 1
164 644 1
170 644 1
192 644 1
120 645 1
127 645 1
165 645 1
171 645 1
193 645 1
121 646 1
128 646 1
166 646 1
172 646 1
194 646 1
122 647 1
129 647 1
167 647 1
173 647 1
195 647 1
123 648 1
130 648 1
168 648 1
174 648 1
196 648 1
124 649 1
131 649 1
148 649 1
175 649 1
197 649 1
125 650 1
132 650 1
149 650 1
176 650 1
198 650 1
126 651 1
133 651 1
150 651 1
177 651 1
199 651 1
211 652 1
232 652 1
253 652 1
274 652 1
295 652 1
212 653 1
233 653 1
254 653 1
275 653 1
296 653 1
213 654 1
234 654 1
255 654 1
276 654 1
297 654 1
214 655 1
235 655 1
256 655 1
277 655 1
298 655 1
215 656 1
236 656 1
257 656 1
278 656 1
299 656 1
216 657 1
237 657 1
258 657 1
279 657 1
300 657 1
217 658 1
238 658 1
259 658 1
280 658 1
301 658 1
218 659 1
239 659 1
260 659 1
281 659 1
302 659 1
219 660 1
240 660 1
261 660 1
282 660 1
303 660 1
220 661 1
241 661 1
262 661 1
283 661 1
304 661 1
221 662 1
242 662 1
263 662 1
284 662 1
305 662 1
222 663 1
243 663 1
264 663 1
285 663 1
306 663 1
223 664 1
244 664 1
265 664 1
286 664 1
307 664 1
224 665 1
245 665 1
266 665 1
287 665 1
308 665 1
225 666 1
246 666 1
267 666 1
288 666 1
309 666 1
226 667 1
247 667 1
268 667 1
289 667 1
310 667 1
227 668 1
248 668 1
269 668 1
290 668 1
311 668 1
228 669 1
249 669 1
270 669 1
291 669 1
312 669 1
229 670 1
250 670 1
271 670 1
292 670 1
313 670 1
230 671 1
251 671 1
272 671 1
293 671 1
314 671 1
231 672 1
252 672 1
273 672 1
294 672 1
315 672 1
211 673 1
249 673 1
269 673 1
288 673 1
299 673 1
212 674 1
250 674 1
270 674 1
289 674 1
300 674 1
213 675 1
251 675 1
271 675 1
290 675 1
301 675 1
214 676 1
252 676 1
272 676 1
291 676 1
302 676 1
215 677 1
232 677 1
273 677 1
292 677 1
303 677 1
216 678 1
233 678 1
253 678 1
293 678 1
304 678 1
217 679 1
234 679 1
254 679 1
294 679 1
305 679 1
218 680 1
235 680 1
255 680 1
274 680 1
306 680 1
219 681 1
236 681 1
256 681 1
275 681 1
307 681 1
220 682 1
237 682 1
257 682 1
276 682 1
308 682 1
221 683 1
238 683 1
258 683 1
277 683 1
309 683 1
222 684 1
239 684 1
259 684 1
278 684 1
310 684 1
223 685 1
240 685 1
260 685 1
279 685 1
311 685 1
224 686 1
241 686 1
261 686 1
280 686 1
312 686 1
225 687 1
242 687 1
262 687 1
281 687 1
313 687 1
226 688 1
243 688 1
263 688 1
282 688 1
314 688 1
227 689 1
244 689 1
264 689 1
283 689 1
315 689 1
228 690 1
245 690 1
265 690 1
284 690 1
295 690 1
229 691 1
246 691 1
266 691 1
285 691 1
296 691 1
230 692 1
247 692 1
267 692 1
286 692 1
297 692 1
231 693 1
248 693 1
268 693 1
287 693 1
298 693 1
211 694 1
239 694 1
256 694 1
283 694 1
305 694 1
212 695 1
240 695 1
257 695 1
284 695 1
306 695 1
213 696 1
241 696 1
258 696 1
285 696 1
307 696 1
214 697 1
242 697 1
259 697 1
286 697 1
308 697 1
215 698 1
243 698 1
260 698 1
287 698 1
309 698 1
216 699 1
244 699 1
261 699 1
288 699 1
310 699 1
217 700 1
245 700 1
262 700 1
289 700 1
311 700 1
218 701 1
246 701 1
263 701 1
290 701 1
312 701 1
219 702 1
247 702 1
264 702 1
291 702 1
313 702 1
220 703 1
248 703 1
265 703 1
292 703 1
314 703 1
221 704 1
249 704 1
266 704 1
293 704 1
315 704 1
222 705 1
250 705 1
267 705 1
294 705 1
295 705 1
223 706 1
251 706 1
268 706 1
274 706 1
296 706 1
224 707 1
252 707 1
269 707 1
275 707 1
297 707 1
225 708 1
232 708 1
270 708 1
276 708 1
298 708 1
226 709 1
233 709 1
271 709 1
277 709 1
299 709 1
227 710 1
234 710 1
272 710 1
278 710 1
300 710 1
228 711 1
235 711 1
273 711 1
279 711 1
301 711 1
229 712 1
236 712 1
253 712 1
280 712 1
302 712 1
230 713 1
237 713 1
254 713 1
281 713 1
303 713 1
231 714 1
238 714 1
255 714 1
282 714 1
304 714 1
