%%MatrixMarket matrix coordinate integer general
136 1020 21320
1 1 1
2 1 1
4 1 1
36 1 1
38 1 1
40 1 1
42 1 1
43 1 1
45 1 1
47 1 1
48 1 1
51 1 1
52 1 1
54 1 1
56 1 1
58 1 1
61 1 1
67 1 1
69 1 1
70 1 1
71 1 1
72 1 1
76 1 1
77 1 1
78 1 1
80 1 1
81 1 1
82 1 1
86 1 1
87 1 1
88 1 1
89 1 1
95 1 1
96 1 1
97 1 1
99 1 1
100 1 1
106 1 1
108 1 1
109 1 1
113 1 1
115 1 1
116 1 1
117 1 1
121 1 1
123 1 1
126 1 1
128 1 1
130 1 1
131 1 1
135 1 1
1 2 1
5 2 1
34 2 1
37 2 1
38 2 1
42 2 1
43 2 1
45 2 1
46 2 1
47 2 1
48 2 1
51 2 1
53 2 1
54 2 1
55 2 1
57 2 1
59 2 1
63 2 1
65 2 1
66 2 1
70 2 1
75 2 1
76 2 1
77 2 1
78 2 1
79 2 1
80 2 1
81 2 1
84 2 1
85 2 1
88 2 1
89 2 1
91 2 1
99 2 1
100 2 1
101 2 1
108 2 1
111 2 1
112 2 1
114 2 1
116 2 1
117 2 1
118 2 1
120 2 1
123 2 1
124 2 1
125 2 1
128 2 1
130 2 1
132 2 1
1 3 1
2 3 1
34 3 1
38 3 1
39 3 1
40 3 1
46 3 1
49 3 1
51 3 1
52 3 1
57 3 1
60 3 1
61 3 1
62 3 1
65 3 1
67 3 1
68 3 1
70 3 1
71 3 1
72 3 1
74 3 1
75 3 1
77 3 1
78 3 1
79 3 1
83 3 1
84 3 1
85 3 1
87 3 1
89 3 1
94 3 1
95 3 1
96 3 1
97 3 1
98 3 1
99 3 1
101 3 1
102 3 1
106 3 1
108 3 1
110 3 1
112 3 1
115 3 1
116 3 1
119 3 1
120 3 1
121 3 1
122 3 1
123 3 1
124 3 1
125 3 1
126 3 1
127 3 1
128 3 1
130 3 1
131 3 1
134 3 1
136 3 1
1 4 1
4 4 1
5 4 1
34 4 1
36 4 1
38 4 1
40 4 1
41 4 1
43 4 1
49 4 1
53 4 1
54 4 1
58 4 1
59 4 1
61 4 1
63 4 1
64 4 1
65 4 1
69 4 1
70 4 1
71 4 1
73 4 1
74 4 1
76 4 1
78 4 1
80 4 1
82 4 1
83 4 1
85 4 1
86 4 1
87 4 1
88 4 1
89 4 1
90 4 1
96 4 1
99 4 1
100 4 1
102 4 1
107 4 1
108 4 1
109 4 1
112 4 1
114 4 1
115 4 1
117 4 1
118 4 1
119 4 1
121 4 1
123 4 1
124 4 1
125 4 1
126 4 1
127 4 1
128 4 1
129 4 1
130 4 1
134 4 1
1 5 1
2 5 1
3 5 1
4 5 1
34 5 1
37 5 1
40 5 1
41 5 1
42 5 1
45 5 1
47 5 1
50 5 1
51 5 1
52 5 1
54 5 1
55 5 1
57 5 1
58 5 1
59 5 1
61 5 1
62 5 1
63 5 1
65 5 1
66 5 1
70 5 1
75 5 1
82 5 1
83 5 1
84 5 1
86 5 1
91 5 1
93 5 1
95 5 1
99 5 1
100 5 1
102 5 1
103 5 1
105 5 1
109 5 1
110 5 1
113 5 1
119 5 1
121 5 1
123 5 1
124 5 1
125 5 1
127 5 1
130 5 1
133 5 1
1 6 1
2 6 1
3 6 1
4 6 1
5 6 1
36 6 1
38 6 1
39 6 1
42 6 1
44 6 1
46 6 1
47 6 1
50 6 1
53 6 1
54 6 1
55 6 1
57 6 1
58 6 1
59 6 1
60 6 1
62 6 1
63 6 1
64 6 1
65 6 1
68 6 1
69 6 1
74 6 1
76 6 1
77 6 1
86 6 1
87 6 1
91 6 1
92 6 1
94 6 1
96 6 1
97 6 1
99 6 1
102 6 1
104 6 1
105 6 1
108 6 1
109 6 1
110 6 1
112 6 1
113 6 1
114 6 1
117 6 1
119 6 1
120 6 1
122 6 1
124 6 1
126 6 1
127 6 1
134 6 1
34 7 1
36 7 1
37 7 1
38 7 1
44 7 1
45 7 1
46 7 1
47 7 1
48 7 1
49 7 1
51 7 1
54 7 1
55 7 1
57 7 1
60 7 1
62 7 1
64 7 1
65 7 1
66 7 1
70 7 1
72 7 1
73 7 1
75 7 1
76 7 1
77 7 1
78 7 1
80 7 1
81 7 1
82 7 1
85 7 1
86 7 1
87 7 1
88 7 1
90 7 1
91 7 1
94 7 1
99 7 1
100 7 1
101 7 1
102 7 1
104 7 1
109 7 1
110 7 1
113 7 1
114 7 1
115 7 1
116 7 1
118 7 1
121 7 1
122 7 1
123 7 1
129 7 1
130 7 1
131 7 1
3 8 1
5 8 1
36 8 1
37 8 1
39 8 1
41 8 1
42 8 1
43 8 1
45 8 1
47 8 1
49 8 1
52 8 1
54 8 1
57 8 1
58 8 1
60 8 1
61 8 1
64 8 1
67 8 1
68 8 1
69 8 1
70 8 1
72 8 1
74 8 1
75 8 1
76 8 1
77 8 1
79 8 1
80 8 1
81 8 1
83 8 1
84 8 1
85 8 1
89 8 1
90 8 1
91 8 1
93 8 1
94 8 1
100 8 1
101 8 1
102 8 1
105 8 1
107 8 1
111 8 1
113 8 1
114 8 1
115 8 1
116 8 1
117 8 1
118 8 1
122 8 1
124 8 1
126 8 1
130 8 1
131 8 1
134 8 1
1 9 1
4 9 1
36 9 1
37 9 1
38 9 1
39 9 1
41 9 1
43 9 1
45 9 1
46 9 1
50 9 1
51 9 1
52 9 1
53 9 1
54 9 1
55 9 1
56 9 1
57 9 1
59 9 1
63 9 1
65 9 1
66 9 1
69 9 1
72 9 1
73 9 1
74 9 1
75 9 1
77 9 1
78 9 1
79 9 1
80 9 1
83 9 1
85 9 1
89 9 1
90 9 1
92 9 1
93 9 1
94 9 1
95 9 1
98 9 1
105 9 1
111 9 1
112 9 1
113 9 1
116 9 1
117 9 1
118 9 1
119 9 1
126 9 1
129 9 1
131 9 1
3 10 1
5 10 1
34 10 1
36 10 1
38 10 1
41 10 1
42 10 1
45 10 1
46 10 1
52 10 1
55 10 1
59 10 1
61 10 1
64 10 1
65 10 1
66 10 1
67 10 1
68 10 1
69 10 1
70 10 1
71 10 1
72 10 1
74 10 1
80 10 1
81 10 1
82 10 1
83 10 1
85 10 1
87 10 1
88 10 1
90 10 1
92 10 1
93 10 1
95 10 1
96 10 1
98 10 1
103 10 1
109 10 1
110 10 1
116 10 1
117 10 1
120 10 1
121 10 1
122 10 1
126 10 1
128 10 1
130 10 1
131 10 1
1 11 1
3 11 1
37 11 1
38 11 1
40 11 1
42 11 1
45 11 1
46 11 1
48 11 1
49 11 1
50 11 1
51 11 1
52 11 1
53 11 1
54 11 1
56 11 1
58 11 1
59 11 1
60 11 1
61 11 1
62 11 1
66 11 1
68 11 1
72 11 1
73 11 1
79 11 1
80 11 1
82 11 1
83 11 1
84 11 1
86 11 1
88 11 1
92 11 1
93 11 1
97 11 1
100 11 1
108 11 1
109 11 1
111 11 1
113 11 1
116 11 1
118 11 1
119 11 1
120 11 1
121 11 1
125 11 1
126 11 1
131 11 1
134 11 1
2 12 1
3 12 1
5 12 1
34 12 1
36 12 1
37 12 1
40 12 1
42 12 1
48 12 1
50 12 1
52 12 1
58 12 1
60 12 1
67 12 1
68 12 1
70 12 1
72 12 1
73 12 1
77 12 1
81 12 1
82 12 1
84 12 1
86 12 1
87 12 1
91 12 1
92 12 1
95 12 1
96 12 1
97 12 1
98 12 1
99 12 1
100 12 1
102 12 1
103 12 1
104 12 1
105 12 1
106 12 1
107 12 1
108 12 1
109 12 1
113 12 1
114 12 1
115 12 1
120 12 1
127 12 1
128 12 1
129 12 1
130 12 1
34 13 1
36 13 1
38 13 1
41 13 1
45 13 1
49 13 1
50 13 1
57 13 1
59 13 1
60 13 1
61 13 1
62 13 1
64 13 1
69 13 1
71 13 1
73 13 1
78 13 1
79 13 1
80 13 1
81 13 1
82 13 1
85 13 1
87 13 1
88 13 1
91 13 1
94 13 1
96 13 1
98 13 1
99 13 1
100 13 1
102 13 1
106 13 1
108 13 1
110 13 1
113 13 1
116 13 1
118 13 1
120 13 1
122 13 1
125 13 1
126 13 1
128 13 1
129 13 1
130 13 1
3 14 1
5 14 1
36 14 1
37 14 1
41 14 1
43 14 1
44 14 1
47 14 1
50 14 1
58 14 1
59 14 1
61 14 1
62 14 1
63 14 1
64 14 1
66 14 1
67 14 1
72 14 1
77 14 1
78 14 1
79 14 1
80 14 1
81 14 1
82 14 1
83 14 1
84 14 1
89 14 1
90 14 1
94 14 1
97 14 1
98 14 1
102 14 1
103 14 1
104 14 1
105 14 1
106 14 1
109 14 1
110 14 1
111 14 1
113 14 1
114 14 1
118 14 1
120 14 1
121 14 1
125 14 1
127 14 1
128 14 1
129 14 1
131 14 1
1 15 1
4 15 1
34 15 1
41 15 1
42 15 1
46 15 1
48 15 1
49 15 1
52 15 1
53 15 1
57 15 1
60 15 1
63 15 1
65 15 1
67 15 1
68 15 1
69 15 1
71 15 1
72 15 1
76 15 1
78 15 1
79 15 1
85 15 1
89 15 1
90 15 1
93 15 1
95 15 1
97 15 1
98 15 1
99 15 1
100 15 1
103 15 1
105 15 1
107 15 1
109 15 1
110 15 1
111 15 1
117 15 1
118 15 1
119 15 1
121 15 1
122 15 1
125 15 1
126 15 1
127 15 1
128 15 1
129 15 1
134 15 1
3 16 1
5 16 1
34 16 1
36 16 1
41 16 1
45 16 1
46 16 1
49 16 1
50 16 1
53 16 1
56 16 1
58 16 1
61 16 1
63 16 1
65 16 1
66 16 1
69 16 1
70 16 1
73 16 1
75 16 1
78 16 1
80 16 1
82 16 1
83 16 1
88 16 1
92 16 1
93 16 1
96 16 1
98 16 1
100 16 1
101 16 1
103 16 1
104 16 1
106 16 1
110 16 1
111 16 1
115 16 1
118 16 1
120 16 1
121 16 1
122 16 1
123 16 1
125 16 1
127 16 1
128 16 1
131 16 1
134 16 1
1 17 1
3 17 1
36 17 1
39 17 1
46 17 1
47 17 1
51 17 1
53 17 1
56 17 1
57 17 1
60 17 1
62 17 1
63 17 1
64 17 1
65 17 1
66 17 1
68 17 1
70 17 1
71 17 1
74 17 1
78 17 1
82 17 1
84 17 1
86 17 1
88 17 1
89 17 1
92 17 1
96 17 1
99 17 1
103 17 1
104 17 1
106 17 1
107 17 1
108 17 1
111 17 1
112 17 1
115 17 1
120 17 1
123 17 1
124 17 1
125 17 1
126 17 1
127 17 1
128 17 1
131 17 1
2 18 1
3 18 1
4 18 1
5 18 1
34 18 1
36 18 1
38 18 1
39 18 1
41 18 1
43 18 1
44 18 1
45 18 1
46 18 1
47 18 1
48 18 1
50 18 1
52 18 1
53 18 1
55 18 1
57 18 1
59 18 1
60 18 1
62 18 1
68 18 1
69 18 1
71 18 1
73 18 1
76 18 1
77 18 1
78 18 1
80 18 1
84 18 1
86 18 1
88 18 1
91 18 1
95 18 1
98 18 1
99 18 1
100 18 1
104 18 1
105 18 1
106 18 1
108 18 1
109 18 1
110 18 1
112 18 1
114 18 1
119 18 1
124 18 1
125 18 1
127 18 1
128 18 1
129 18 1
130 18 1
36 19 1
39 19 1
40 19 1
41 19 1
42 19 1
43 19 1
45 19 1
46 19 1
47 19 1
48 19 1
52 19 1
55 19 1
56 19 1
57 19 1
58 19 1
59 19 1
61 19 1
66 19 1
69 19 1
70 19 1
71 19 1
73 19 1
75 19 1
76 19 1
77 19 1
82 19 1
84 19 1
85 19 1
87 19 1
88 19 1
89 19 1
91 19 1
94 19 1
95 19 1
97 19 1
99 19 1
101 19 1
103 19 1
105 19 1
106 19 1
111 19 1
112 19 1
116 19 1
117 19 1
123 19 1
125 19 1
127 19 1
128 19 1
130 19 1
5 20 1
37 20 1
38 20 1
40 20 1
42 20 1
45 20 1
46 20 1
47 20 1
48 20 1
49 20 1
50 20 1
51 20 1
53 20 1
55 20 1
58 20 1
59 20 1
60 20 1
62 20 1
63 20 1
65 20 1
66 20 1
68 20 1
72 20 1
74 20 1
75 20 1
76 20 1
77 20 1
78 20 1
83 20 1
84 20 1
85 20 1
86 20 1
88 20 1
89 20 1
90 20 1
94 20 1
100 20 1
102 20 1
103 20 1
106 20 1
108 20 1
109 20 1
110 20 1
117 20 1
120 20 1
124 20 1
125 20 1
126 20 1
127 20 1
129 20 1
134 20 1
1 21 1
2 21 1
3 21 1
4 21 1
34 21 1
36 21 1
39 21 1
40 21 1
41 21 1
44 21 1
46 21 1
48 21 1
49 21 1
51 21 1
52 21 1
55 21 1
58 21 1
60 21 1
62 21 1
64 21 1
65 21 1
67 21 1
68 21 1
72 21 1
73 21 1
74 21 1
75 21 1
76 21 1
77 21 1
78 21 1
81 21 1
82 21 1
83 21 1
84 21 1
85 21 1
89 21 1
90 21 1
91 21 1
93 21 1
95 21 1
96 21 1
97 21 1
98 21 1
99 21 1
100 21 1
101 21 1
107 21 1
109 21 1
111 21 1
112 21 1
113 21 1
116 21 1
117 21 1
119 21 1
120 21 1
121 21 1
123 21 1
126 21 1
127 21 1
129 21 1
130 21 1
1 22 1
2 22 1
3 22 1
5 22 1
39 22 1
42 22 1
43 22 1
44 22 1
46 22 1
47 22 1
48 22 1
51 22 1
56 22 1
57 22 1
58 22 1
59 22 1
62 22 1
63 22 1
65 22 1
69 22 1
70 22 1
71 22 1
72 22 1
73 22 1
74 22 1
75 22 1
77 22 1
79 22 1
80 22 1
83 22 1
85 22 1
86 22 1
87 22 1
88 22 1
92 22 1
93 22 1
94 22 1
96 22 1
99 22 1
100 22 1
101 22 1
102 22 1
104 22 1
109 22 1
110 22 1
111 22 1
116 22 1
117 22 1
118 22 1
119 22 1
120 22 1
121 22 1
123 22 1
124 22 1
126 22 1
128 22 1
129 22 1
131 22 1
134 22 1
3 23 1
34 23 1
36 23 1
38 23 1
43 23 1
46 23 1
47 23 1
49 23 1
55 23 1
56 23 1
61 23 1
62 23 1
64 23 1
65 23 1
66 23 1
67 23 1
74 23 1
77 23 1
80 23 1
83 23 1
84 23 1
85 23 1
86 23 1
88 23 1
90 23 1
91 23 1
92 23 1
96 23 1
97 23 1
98 23 1
101 23 1
102 23 1
105 23 1
106 23 1
107 23 1
108 23 1
109 23 1
110 23 1
111 23 1
113 23 1
116 23 1
118 23 1
119 23 1
120 23 1
122 23 1
123 23 1
124 23 1
125 23 1
126 23 1
129 23 1
134 23 1
2 24 1
4 24 1
5 24 1
38 24 1
39 24 1
40 24 1
44 24 1
45 24 1
46 24 1
47 24 1
50 24 1
52 24 1
53 24 1
54 24 1
55 24 1
56 24 1
57 24 1
58 24 1
61 24 1
62 24 1
63 24 1
68 24 1
69 24 1
71 24 1
81 24 1
83 24 1
84 24 1
85 24 1
86 24 1
87 24 1
91 24 1
93 24 1
94 24 1
95 24 1
96 24 1
99 24 1
102 24 1
103 24 1
104 24 1
107 24 1
108 24 1
110 24 1
111 24 1
112 24 1
115 24 1
116 24 1
117 24 1
119 24 1
121 24 1
122 24 1
123 24 1
124 24 1
126 24 1
127 24 1
128 24 1
129 24 1
131 24 1
2 25 1
4 25 1
34 25 1
36 25 1
44 25 1
45 25 1
48 25 1
49 25 1
53 25 1
54 25 1
55 25 1
57 25 1
59 25 1
60 25 1
61 25 1
63 25 1
64 25 1
66 25 1
67 25 1
69 25 1
70 25 1
71 25 1
72 25 1
73 25 1
76 25 1
77 25 1
79 25 1
80 25 1
81 25 1
82 25 1
83 25 1
88 25 1
90 25 1
91 25 1
92 25 1
94 25 1
95 25 1
99 25 1
100 25 1
101 25 1
102 25 1
103 25 1
106 25 1
109 25 1
111 25 1
115 25 1
117 25 1
119 25 1
121 25 1
122 25 1
123 25 1
124 25 1
125 25 1
129 25 1
134 25 1
1 26 1
3 26 1
4 26 1
5 26 1
34 26 1
36 26 1
37 26 1
41 26 1
45 26 1
47 26 1
52 26 1
56 26 1
57 26 1
58 26 1
59 26 1
60 26 1
61 26 1
62 26 1
65 26 1
66 26 1
67 26 1
68 26 1
70 26 1
72 26 1
75 26 1
76 26 1
77 26 1
78 26 1
79 26 1
81 26 1
82 26 1
84 26 1
85 26 1
87 26 1
90 26 1
93 26 1
94 26 1
95 26 1
98 26 1
100 26 1
101 26 1
102 26 1
106 26 1
107 26 1
108 26 1
110 26 1
111 26 1
114 26 1
118 26 1
120 26 1
121 26 1
123 26 1
124 26 1
126 26 1
127 26 1
131 26 1
1 27 1
3 27 1
4 27 1
34 27 1
36 27 1
41 27 1
42 27 1
44 27 1
46 27 1
47 27 1
49 27 1
51 27 1
57 27 1
58 27 1
60 27 1
61 27 1
63 27 1
68 27 1
71 27 1
72 27 1
73 27 1
74 27 1
75 27 1
78 27 1
79 27 1
81 27 1
83 27 1
85 27 1
87 27 1
88 27 1
90 27 1
92 27 1
93 27 1
95 27 1
96 27 1
98 27 1
103 27 1
105 27 1
108 27 1
111 27 1
113 27 1
114 27 1
115 27 1
120 27 1
124 27 1
129 27 1
131 27 1
2 28 1
3 28 1
4 28 1
5 28 1
34 28 1
38 28 1
39 28 1
40 28 1
43 28 1
44 28 1
45 28 1
47 28 1
48 28 1
51 28 1
53 28 1
56 28 1
57 28 1
60 28 1
62 28 1
63 28 1
64 28 1
65 28 1
67 28 1
70 28 1
71 28 1
72 28 1
73 28 1
74 28 1
78 28 1
79 28 1
80 28 1
82 28 1
83 28 1
84 28 1
87 28 1
89 28 1
92 28 1
93 28 1
95 28 1
97 28 1
100 28 1
101 28 1
102 28 1
104 28 1
105 28 1
107 28 1
108 28 1
109 28 1
111 28 1
115 28 1
117 28 1
118 28 1
120 28 1
121 28 1
122 28 1
126 28 1
129 28 1
130 28 1
131 28 1
134 28 1
64 29 1
92 29 1
5 30 1
67 30 1
95 30 1
4 31 1
97 31 1
129 31 1
63 32 1
131 32 1
98 33 1
130 33 1
96 34 1
99 35 1
100 36 1
101 37 1
102 38 1
107 39 1
104 40 1
105 41 1
103 42 1
106 43 1
108 44 1
112 45 1
109 46 1
111 47 1
110 48 1
115 49 1
114 50 1
113 51 1
116 52 1
117 53 1
120 54 1
119 55 1
121 56 1
118 57 1
122 58 1
34 60 1
36 60 1
37 60 1
38 60 1
39 60 1
40 60 1
41 60 1
42 60 1
43 60 1
44 60 1
45 60 1
46 60 1
47 60 1
48 60 1
49 60 1
50 60 1
51 60 1
52 60 1
53 60 1
54 60 1
55 60 1
56 60 1
57 60 1
58 60 1
59 60 1
60 60 1
61 60 1
62 60 1
63 60 1
64 60 1
67 60 1
96 60 1
97 60 1
98 60 1
99 60 1
100 60 1
101 60 1
102 60 1
103 60 1
104 60 1
105 60 1
106 60 1
107 60 1
108 60 1
109 60 1
110 60 1
111 60 1
112 60 1
113 60 1
114 60 1
115 60 1
116 60 1
117 60 1
118 60 1
119 60 1
120 60 1
121 60 1
122 60 1
132 60 1
133 60 1
135 60 1
136 60 1
123 61 1
124 62 1
126 64 1
128 65 1
134 65 1
125 66 1
127 67 1
36 87 1
37 87 1
38 87 1
41 87 1
48 87 1
49 87 1
50 87 1
52 87 1
53 87 1
54 87 1
58 87 1
62 87 1
64 87 1
67 87 1
97 87 1
100 87 1
101 87 1
102 87 1
104 87 1
105 87 1
108 87 1
109 87 1
113 87 1
116 87 1
117 87 1
119 87 1
121 87 1
123 87 1
124 87 1
127 87 1
133 87 1
135 87 1
136 87 1
37 88 1
40 88 1
41 88 1
42 88 1
46 88 1
47 88 1
50 88 1
51 88 1
53 88 1
59 88 1
60 88 1
61 88 1
64 88 1
67 88 1
96 88 1
98 88 1
99 88 1
101 88 1
102 88 1
105 88 1
106 88 1
110 88 1
114 88 1
115 88 1
116 88 1
117 88 1
121 88 1
122 88 1
126 88 1
127 88 1
133 88 1
34 89 1
38 89 1
39 89 1
42 89 1
44 89 1
46 89 1
49 89 1
50 89 1
54 89 1
56 89 1
59 89 1
61 89 1
62 89 1
67 89 1
96 89 1
99 89 1
100 89 1
102 89 1
103 89 1
107 89 1
108 89 1
113 89 1
114 89 1
115 89 1
117 89 1
118 89 1
120 89 1
123 89 1
128 89 1
132 89 1
135 89 1
136 89 1
37 90 1
38 90 1
39 90 1
42 90 1
45 90 1
47 90 1
48 90 1
50 90 1
53 90 1
54 90 1
55 90 1
56 90 1
58 90 1
60 90 1
61 90 1
63 90 1
67 90 1
96 90 1
97 90 1
98 90 1
102 90 1
103 90 1
105 90 1
108 90 1
109 90 1
110 90 1
111 90 1
115 90 1
117 90 1
118 90 1
121 90 1
123 90 1
124 90 1
125 90 1
132 90 1
133 90 1
136 90 1
34 96 1
36 96 1
39 96 1
40 96 1
41 96 1
44 96 1
46 96 1
47 96 1
48 96 1
49 96 1
50 96 1
57 96 1
59 96 1
62 96 1
69 96 1
70 96 1
73 96 1
76 96 1
78 96 1
80 96 1
85 96 1
87 96 1
91 96 1
93 96 1
94 96 1
95 96 1
96 96 1
97 96 1
99 96 1
100 96 1
102 96 1
103 96 1
105 96 1
107 96 1
109 96 1
110 96 1
112 96 1
117 96 1
118 96 1
119 96 1
121 96 1
122 96 1
124 96 1
125 96 1
126 96 1
127 96 1
128 96 1
129 96 1
133 96 1
134 96 1
136 96 1
34 97 1
39 97 1
43 97 1
46 97 1
47 97 1
48 97 1
51 97 1
53 97 1
54 97 1
55 97 1
56 97 1
57 97 1
59 97 1
60 97 1
61 97 1
63 97 1
65 97 1
66 97 1
67 97 1
72 97 1
75 97 1
76 97 1
80 97 1
81 97 1
83 97 1
89 97 1
90 97 1
92 97 1
94 97 1
99 97 1
100 97 1
101 97 1
103 97 1
104 97 1
106 97 1
107 97 1
109 97 1
111 97 1
115 97 1
118 97 1
120 97 1
121 97 1
122 97 1
125 97 1
127 97 1
128 97 1
131 97 1
132 97 1
133 97 1
134 97 1
135 97 1
136 97 1
36 98 1
37 98 1
38 98 1
39 98 1
42 98 1
44 98 1
45 98 1
46 98 1
47 98 1
48 98 1
49 98 1
51 98 1
52 98 1
53 98 1
56 98 1
60 98 1
61 98 1
62 98 1
63 98 1
64 98 1
67 98 1
68 98 1
73 98 1
74 98 1
75 98 1
76 98 1
78 98 1
79 98 1
80 98 1
81 98 1
85 98 1
88 98 1
90 98 1
91 98 1
94 98 1
97 98 1
101 98 1
104 98 1
108 98 1
109 98 1
110 98 1
115 98 1
117 98 1
118 98 1
120 98 1
121 98 1
122 98 1
127 98 1
128 98 1
130 98 1
132 98 1
134 98 1
135 98 1
136 98 1
36 99 1
38 99 1
44 99 1
48 99 1
50 99 1
55 99 1
57 99 1
58 99 1
60 99 1
62 99 1
71 99 1
72 99 1
73 99 1
74 99 1
75 99 1
79 99 1
80 99 1
81 99 1
82 99 1
83 99 1
84 99 1
90 99 1
93 99 1
94 99 1
96 99 1
97 99 1
99 99 1
100 99 1
101 99 1
103 99 1
104 99 1
106 99 1
107 99 1
108 99 1
109 99 1
110 99 1
113 99 1
116 99 1
117 99 1
121 99 1
123 99 1
125 99 1
126 99 1
129 99 1
133 99 1
134 99 1
135 99 1
36 100 1
38 100 1
41 100 1
43 100 1
44 100 1
45 100 1
48 100 1
49 100 1
50 100 1
53 100 1
54 100 1
55 100 1
60 100 1
61 100 1
62 100 1
63 100 1
67 100 1
70 100 1
71 100 1
72 100 1
74 100 1
77 100 1
78 100 1
79 100 1
81 100 1
82 100 1
86 100 1
87 100 1
90 100 1
92 100 1
93 100 1
97 100 1
99 100 1
106 100 1
109 100 1
111 100 1
112 100 1
113 100 1
115 100 1
118 100 1
119 100 1
120 100 1
121 100 1
123 100 1
128 100 1
129 100 1
131 100 1
134 100 1
34 101 1
36 101 1
37 101 1
42 101 1
44 101 1
47 101 1
49 101 1
51 101 1
52 101 1
55 101 1
57 101 1
59 101 1
62 101 1
64 101 1
69 101 1
71 101 1
73 101 1
77 101 1
79 101 1
82 101 1
87 101 1
89 101 1
92 101 1
94 101 1
97 101 1
102 101 1
105 101 1
106 101 1
108 101 1
110 101 1
115 101 1
116 101 1
117 101 1
118 101 1
120 101 1
122 101 1
124 101 1
128 101 1
130 101 1
131 101 1
134 101 1
135 101 1
36 102 1
38 102 1
39 102 1
41 102 1
43 102 1
45 102 1
46 102 1
51 102 1
55 102 1
56 102 1
61 102 1
62 102 1
63 102 1
66 102 1
69 102 1
70 102 1
72 102 1
73 102 1
76 102 1
77 102 1
80 102 1
82 102 1
87 102 1
88 102 1
89 102 1
90 102 1
91 102 1
93 102 1
94 102 1
96 102 1
97 102 1
99 102 1
100 102 1
102 102 1
105 102 1
108 102 1
109 102 1
110 102 1
114 102 1
115 102 1
118 102 1
120 102 1
121 102 1
124 102 1
127 102 1
128 102 1
129 102 1
130 102 1
132 102 1
134 102 1
136 102 1
34 103 1
37 103 1
39 103 1
42 103 1
44 103 1
45 103 1
46 103 1
48 103 1
49 103 1
50 103 1
54 103 1
55 103 1
56 103 1
57 103 1
61 103 1
64 103 1
66 103 1
68 103 1
70 103 1
72 103 1
75 103 1
76 103 1
77 103 1
81 103 1
84 103 1
85 103 1
88 103 1
89 103 1
90 103 1
92 103 1
93 103 1
94 103 1
96 103 1
100 103 1
101 103 1
106 103 1
110 103 1
113 103 1
119 103 1
120 103 1
123 103 1
124 103 1
125 103 1
126 103 1
127 103 1
131 103 1
133 103 1
134 103 1
135 103 1
34 104 1
45 104 1
48 104 1
50 104 1
51 104 1
52 104 1
58 104 1
60 104 1
62 104 1
67 104 1
68 104 1
69 104 1
74 104 1
75 104 1
78 104 1
79 104 1
80 104 1
83 104 1
84 104 1
86 104 1
87 104 1
88 104 1
90 104 1
91 104 1
92 104 1
94 104 1
96 104 1
97 104 1
100 104 1
101 104 1
103 104 1
105 104 1
107 104 1
108 104 1
109 104 1
110 104 1
112 104 1
115 104 1
116 104 1
117 104 1
118 104 1
122 104 1
125 104 1
126 104 1
129 104 1
130 104 1
134 104 1
135 104 1
34 105 1
36 105 1
37 105 1
38 105 1
42 105 1
43 105 1
44 105 1
47 105 1
51 105 1
52 105 1
56 105 1
58 105 1
60 105 1
63 105 1
66 105 1
67 105 1
69 105 1
70 105 1
71 105 1
74 105 1
76 105 1
78 105 1
81 105 1
82 105 1
84 105 1
85 105 1
86 105 1
89 105 1
90 105 1
96 105 1
97 105 1
100 105 1
101 105 1
104 105 1
105 105 1
106 105 1
107 105 1
110 105 1
111 105 1
114 105 1
115 105 1
118 105 1
119 105 1
120 105 1
121 105 1
123 105 1
124 105 1
125 105 1
131 105 1
132 105 1
134 105 1
136 105 1
34 106 1
37 106 1
39 106 1
41 106 1
45 106 1
46 106 1
49 106 1
50 106 1
52 106 1
53 106 1
54 106 1
56 106 1
60 106 1
62 106 1
66 106 1
68 106 1
69 106 1
70 106 1
71 106 1
73 106 1
75 106 1
77 106 1
79 106 1
83 106 1
85 106 1
86 106 1
87 106 1
88 106 1
94 106 1
95 106 1
97 106 1
99 106 1
100 106 1
101 106 1
103 106 1
104 106 1
106 106 1
108 106 1
109 106 1
110 106 1
111 106 1
113 106 1
117 106 1
118 106 1
120 106 1
122 106 1
124 106 1
125 106 1
126 106 1
127 106 1
128 106 1
129 106 1
130 106 1
135 106 1
136 106 1
34 107 1
36 107 1
41 107 1
42 107 1
43 107 1
45 107 1
46 107 1
49 107 1
50 107 1
53 107 1
55 107 1
59 107 1
60 107 1
63 107 1
64 107 1
65 107 1
66 107 1
68 107 1
72 107 1
73 107 1
74 107 1
76 107 1
78 107 1
82 107 1
83 107 1
84 107 1
85 107 1
87 107 1
89 107 1
90 107 1
91 107 1
97 107 1
104 107 1
106 107 1
109 107 1
110 107 1
111 107 1
112 107 1
113 107 1
115 107 1
117 107 1
120 107 1
121 107 1
122 107 1
123 107 1
124 107 1
125 107 1
128 107 1
131 107 1
36 108 1
37 108 1
41 108 1
44 108 1
46 108 1
47 108 1
48 108 1
49 108 1
50 108 1
56 108 1
60 108 1
61 108 1
62 108 1
63 108 1
67 108 1
68 108 1
69 108 1
70 108 1
71 108 1
72 108 1
73 108 1
75 108 1
77 108 1
80 108 1
83 108 1
86 108 1
87 108 1
88 108 1
89 108 1
93 108 1
94 108 1
98 108 1
105 108 1
108 108 1
109 108 1
110 108 1
111 108 1
114 108 1
115 108 1
116 108 1
118 108 1
119 108 1
120 108 1
124 108 1
125 108 1
127 108 1
130 108 1
132 108 1
135 108 1
136 108 1
34 109 1
36 109 1
38 109 1
39 109 1
42 109 1
44 109 1
45 109 1
48 109 1
51 109 1
53 109 1
54 109 1
58 109 1
59 109 1
61 109 1
62 109 1
63 109 1
66 109 1
67 109 1
70 109 1
72 109 1
73 109 1
74 109 1
76 109 1
78 109 1
81 109 1
84 109 1
85 109 1
87 109 1
88 109 1
89 109 1
90 109 1
91 109 1
92 109 1
99 109 1
106 109 1
107 109 1
113 109 1
117 109 1
118 109 1
119 109 1
120 109 1
121 109 1
124 109 1
126 109 1
133 109 1
134 109 1
136 109 1
34 110 1
36 110 1
37 110 1
40 110 1
43 110 1
45 110 1
46 110 1
47 110 1
52 110 1
54 110 1
55 110 1
56 110 1
57 110 1
59 110 1
62 110 1
64 110 1
68 110 1
70 110 1
71 110 1
72 110 1
75 110 1
76 110 1
79 110 1
80 110 1
83 110 1
84 110 1
86 110 1
88 110 1
89 110 1
93 110 1
94 110 1
95 110 1
98 110 1
100 110 1
104 110 1
108 110 1
116 110 1
118 110 1
119 110 1
120 110 1
121 110 1
122 110 1
123 110 1
128 110 1
132 110 1
135 110 1
136 110 1
36 111 1
39 111 1
43 111 1
45 111 1
47 111 1
48 111 1
49 111 1
52 111 1
54 111 1
55 111 1
56 111 1
57 111 1
61 111 1
62 111 1
65 111 1
69 111 1
74 111 1
75 111 1
80 111 1
81 111 1
82 111 1
84 111 1
85 111 1
86 111 1
88 111 1
90 111 1
92 111 1
93 111 1
94 111 1
95 111 1
97 111 1
99 111 1
100 111 1
101 111 1
102 111 1
103 111 1
107 111 1
109 111 1
110 111 1
127 111 1
128 111 1
129 111 1
132 111 1
133 111 1
36 112 1
38 112 1
40 112 1
42 112 1
45 112 1
47 112 1
49 112 1
50 112 1
51 112 1
52 112 1
54 112 1
57 112 1
59 112 1
60 112 1
62 112 1
65 112 1
66 112 1
67 112 1
69 112 1
71 112 1
74 112 1
77 112 1
79 112 1
81 112 1
83 112 1
84 112 1
86 112 1
90 112 1
91 112 1
92 112 1
93 112 1
95 112 1
96 112 1
98 112 1
99 112 1
100 112 1
101 112 1
102 112 1
103 112 1
104 112 1
110 112 1
112 112 1
114 112 1
118 112 1
120 112 1
122 112 1
123 112 1
124 112 1
125 112 1
127 112 1
131 112 1
135 112 1
34 113 1
36 113 1
37 113 1
38 113 1
44 113 1
45 113 1
46 113 1
47 113 1
48 113 1
49 113 1
50 113 1
51 113 1
53 113 1
54 113 1
55 113 1
56 113 1
57 113 1
58 113 1
60 113 1
64 113 1
65 113 1
66 113 1
68 113 1
70 113 1
71 113 1
73 113 1
76 113 1
79 113 1
80 113 1
82 113 1
86 113 1
92 113 1
100 113 1
102 113 1
103 113 1
104 113 1
105 113 1
106 113 1
108 113 1
109 113 1
110 113 1
112 113 1
115 113 1
116 113 1
118 113 1
119 113 1
124 113 1
125 113 1
127 113 1
128 113 1
129 113 1
130 113 1
134 113 1
136 113 1
34 114 1
38 114 1
40 114 1
46 114 1
48 114 1
50 114 1
53 114 1
59 114 1
62 114 1
64 114 1
68 114 1
69 114 1
72 114 1
73 114 1
75 114 1
76 114 1
77 114 1
78 114 1
81 114 1
82 114 1
91 114 1
95 114 1
101 114 1
103 114 1
105 114 1
106 114 1
107 114 1
108 114 1
109 114 1
111 114 1
112 114 1
114 114 1
115 114 1
117 114 1
121 114 1
122 114 1
125 114 1
127 114 1
129 114 1
131 114 1
134 114 1
37 115 1
41 115 1
43 115 1
44 115 1
45 115 1
48 115 1
50 115 1
52 115 1
53 115 1
54 115 1
56 115 1
58 115 1
65 115 1
66 115 1
70 115 1
72 115 1
73 115 1
74 115 1
75 115 1
77 115 1
79 115 1
80 115 1
85 115 1
94 115 1
97 115 1
100 115 1
101 115 1
103 115 1
105 115 1
106 115 1
110 115 1
111 115 1
112 115 1
114 115 1
116 115 1
117 115 1
118 115 1
119 115 1
120 115 1
121 115 1
123 115 1
124 115 1
126 115 1
129 115 1
130 115 1
131 115 1
132 115 1
133 115 1
34 116 1
36 116 1
40 116 1
41 116 1
45 116 1
46 116 1
49 116 1
51 116 1
52 116 1
53 116 1
55 116 1
56 116 1
59 116 1
62 116 1
63 116 1
68 116 1
71 116 1
72 116 1
73 116 1
74 116 1
78 116 1
80 116 1
81 116 1
82 116 1
83 116 1
87 116 1
90 116 1
91 116 1
93 116 1
94 116 1
95 116 1
96 116 1
97 116 1
99 116 1
100 116 1
101 116 1
105 116 1
106 116 1
107 116 1
108 116 1
112 116 1
113 116 1
115 116 1
120 116 1
125 116 1
127 116 1
129 116 1
130 116 1
131 116 1
133 116 1
36 117 1
41 117 1
42 117 1
43 117 1
45 117 1
47 117 1
49 117 1
50 117 1
52 117 1
55 117 1
58 117 1
61 117 1
62 117 1
63 117 1
65 117 1
67 117 1
69 117 1
71 117 1
72 117 1
76 117 1
77 117 1
79 117 1
81 117 1
85 117 1
89 117 1
90 117 1
91 117 1
92 117 1
95 117 1
96 117 1
97 117 1
98 117 1
101 117 1
104 117 1
105 117 1
107 117 1
108 117 1
110 117 1
114 117 1
116 117 1
117 117 1
118 117 1
121 117 1
122 117 1
124 117 1
125 117 1
128 117 1
129 117 1
130 117 1
131 117 1
132 117 1
134 117 1
135 117 1
3 118 1
36 118 1
38 118 1
39 118 1
40 118 1
43 118 1
45 118 1
49 118 1
51 118 1
52 118 1
54 118 1
56 118 1
57 118 1
58 118 1
61 118 1
62 118 1
63 118 1
65 118 1
66 118 1
67 118 1
69 118 1
70 118 1
75 118 1
78 118 1
79 118 1
82 118 1
83 118 1
85 118 1
88 118 1
93 118 1
94 118 1
95 118 1
96 118 1
98 118 1
99 118 1
102 118 1
103 118 1
104 118 1
105 118 1
112 118 1
113 118 1
115 118 1
117 118 1
118 118 1
120 118 1
122 118 1
123 118 1
125 118 1
127 118 1
130 118 1
131 118 1
135 118 1
2 119 1
34 119 1
40 119 1
41 119 1
42 119 1
45 119 1
47 119 1
48 119 1
52 119 1
56 119 1
57 119 1
59 119 1
60 119 1
61 119 1
63 119 1
65 119 1
66 119 1
67 119 1
68 119 1
70 119 1
73 119 1
74 119 1
77 119 1
78 119 1
82 119 1
83 119 1
84 119 1
85 119 1
90 119 1
91 119 1
92 119 1
93 119 1
94 119 1
95 119 1
96 119 1
99 119 1
100 119 1
101 119 1
103 119 1
104 119 1
105 119 1
107 119 1
108 119 1
109 119 1
111 119 1
113 119 1
115 119 1
119 119 1
122 119 1
123 119 1
125 119 1
128 119 1
130 119 1
133 119 1
134 119 1
135 119 1
1 120 1
34 120 1
38 120 1
41 120 1
43 120 1
46 120 1
47 120 1
48 120 1
49 120 1
53 120 1
55 120 1
56 120 1
58 120 1
59 120 1
60 120 1
65 120 1
68 120 1
70 120 1
71 120 1
72 120 1
77 120 1
78 120 1
83 120 1
86 120 1
90 120 1
91 120 1
92 120 1
96 120 1
98 120 1
100 120 1
102 120 1
105 120 1
106 120 1
107 120 1
108 120 1
111 120 1
113 120 1
114 120 1
118 120 1
121 120 1
122 120 1
124 120 1
126 120 1
127 120 1
128 120 1
134 120 1
136 120 1
6 121 1
7 122 1
1 123 1
3 123 1
4 123 1
7 123 1
9 123 1
10 123 1
14 123 1
16 123 1
18 123 1
22 123 1
23 123 1
24 123 1
25 123 1
26 123 1
27 123 1
29 123 1
30 123 1
32 123 1
33 123 1
36 123 1
37 123 1
40 123 1
41 123 1
46 123 1
47 123 1
51 123 1
52 123 1
53 123 1
54 123 1
57 123 1
58 123 1
61 123 1
62 123 1
63 123 1
65 123 1
71 123 1
72 123 1
73 123 1
75 123 1
76 123 1
78 123 1
81 123 1
82 123 1
83 123 1
84 123 1
85 123 1
86 123 1
87 123 1
88 123 1
91 123 1
92 123 1
94 123 1
96 123 1
97 123 1
98 123 1
101 123 1
104 123 1
106 123 1
113 123 1
117 123 1
120 123 1
124 123 1
125 123 1
126 123 1
127 123 1
128 123 1
129 123 1
132 123 1
134 123 1
136 123 1
2 124 1
6 124 1
8 124 1
9 124 1
13 124 1
15 124 1
17 124 1
18 124 1
22 124 1
23 124 1
24 124 1
26 124 1
28 124 1
29 124 1
31 124 1
32 124 1
33 124 1
35 124 1
36 124 1
37 124 1
38 124 1
39 124 1
41 124 1
43 124 1
45 124 1
48 124 1
51 124 1
53 124 1
54 124 1
57 124 1
58 124 1
59 124 1
60 124 1
61 124 1
62 124 1
63 124 1
64 124 1
72 124 1
73 124 1
74 124 1
75 124 1
76 124 1
77 124 1
79 124 1
83 124 1
84 124 1
85 124 1
86 124 1
89 124 1
90 124 1
93 124 1
98 124 1
101 124 1
102 124 1
103 124 1
104 124 1
105 124 1
107 124 1
110 124 1
112 124 1
113 124 1
118 124 1
119 124 1
120 124 1
122 124 1
123 124 1
127 124 1
131 124 1
132 124 1
133 124 1
8 125 1
9 125 1
10 125 1
11 125 1
12 125 1
15 125 1
16 125 1
17 125 1
18 125 1
20 125 1
24 125 1
25 125 1
28 125 1
29 125 1
31 125 1
33 125 1
35 125 1
39 125 1
42 125 1
46 125 1
49 125 1
52 125 1
53 125 1
59 125 1
60 125 1
61 125 1
62 125 1
64 125 1
65 125 1
67 125 1
69 125 1
74 125 1
80 125 1
81 125 1
84 125 1
85 125 1
87 125 1
91 125 1
95 125 1
98 125 1
100 125 1
101 125 1
103 125 1
106 125 1
107 125 1
111 125 1
113 125 1
114 125 1
116 125 1
122 125 1
127 125 1
130 125 1
134 125 1
136 125 1
4 126 1
9 126 1
10 126 1
11 126 1
14 126 1
15 126 1
16 126 1
17 126 1
18 126 1
19 126 1
20 126 1
23 126 1
24 126 1
27 126 1
28 126 1
30 126 1
35 126 1
39 126 1
41 126 1
42 126 1
43 126 1
44 126 1
45 126 1
47 126 1
49 126 1
51 126 1
53 126 1
55 126 1
57 126 1
60 126 1
62 126 1
63 126 1
64 126 1
65 126 1
66 126 1
67 126 1
69 126 1
71 126 1
79 126 1
81 126 1
83 126 1
86 126 1
89 126 1
94 126 1
98 126 1
99 126 1
101 126 1
102 126 1
103 126 1
104 126 1
107 126 1
108 126 1
111 126 1
112 126 1
113 126 1
114 126 1
115 126 1
116 126 1
117 126 1
118 126 1
120 126 1
122 126 1
123 126 1
124 126 1
127 126 1
132 126 1
1 127 1
4 127 1
6 127 1
7 127 1
8 127 1
13 127 1
15 127 1
16 127 1
17 127 1
19 127 1
20 127 1
21 127 1
24 127 1
25 127 1
26 127 1
30 127 1
32 127 1
36 127 1
37 127 1
39 127 1
40 127 1
43 127 1
44 127 1
45 127 1
46 127 1
47 127 1
48 127 1
50 127 1
53 127 1
55 127 1
59 127 1
61 127 1
62 127 1
64 127 1
65 127 1
66 127 1
67 127 1
68 127 1
69 127 1
71 127 1
72 127 1
73 127 1
75 127 1
76 127 1
79 127 1
81 127 1
83 127 1
84 127 1
85 127 1
86 127 1
90 127 1
92 127 1
94 127 1
96 127 1
97 127 1
98 127 1
99 127 1
100 127 1
101 127 1
102 127 1
103 127 1
105 127 1
106 127 1
109 127 1
111 127 1
115 127 1
116 127 1
118 127 1
119 127 1
120 127 1
123 127 1
124 127 1
125 127 1
128 127 1
133 127 1
134 127 1
3 128 1
4 128 1
7 128 1
8 128 1
11 128 1
12 128 1
14 128 1
18 128 1
19 128 1
20 128 1
21 128 1
23 128 1
24 128 1
25 128 1
29 128 1
31 128 1
32 128 1
36 128 1
41 128 1
43 128 1
46 128 1
50 128 1
51 128 1
53 128 1
54 128 1
55 128 1
57 128 1
58 128 1
61 128 1
66 128 1
68 128 1
69 128 1
70 128 1
72 128 1
73 128 1
74 128 1
75 128 1
78 128 1
79 128 1
82 128 1
83 128 1
86 128 1
87 128 1
90 128 1
91 128 1
93 128 1
95 128 1
97 128 1
98 128 1
104 128 1
105 128 1
109 128 1
112 128 1
113 128 1
115 128 1
116 128 1
118 128 1
120 128 1
123 128 1
124 128 1
125 128 1
126 128 1
127 128 1
134 128 1
1 129 1
2 129 1
7 129 1
9 129 1
11 129 1
13 129 1
14 129 1
17 129 1
18 129 1
19 129 1
21 129 1
26 129 1
27 129 1
28 129 1
29 129 1
31 129 1
32 129 1
33 129 1
34 129 1
39 129 1
51 129 1
52 129 1
53 129 1
55 129 1
56 129 1
57 129 1
60 129 1
61 129 1
63 129 1
66 129 1
68 129 1
69 129 1
73 129 1
74 129 1
75 129 1
76 129 1
77 129 1
81 129 1
83 129 1
84 129 1
86 129 1
87 129 1
88 129 1
89 129 1
91 129 1
94 129 1
95 129 1
97 129 1
103 129 1
105 129 1
108 129 1
109 129 1
115 129 1
119 129 1
122 129 1
123 129 1
124 129 1
126 129 1
127 129 1
128 129 1
129 129 1
134 129 1
135 129 1
136 129 1
1 130 1
6 130 1
8 130 1
10 130 1
12 130 1
13 130 1
15 130 1
17 130 1
20 130 1
21 130 1
25 130 1
27 130 1
28 130 1
30 130 1
31 130 1
32 130 1
33 130 1
34 130 1
35 130 1
36 130 1
39 130 1
42 130 1
43 130 1
44 130 1
45 130 1
46 130 1
47 130 1
53 130 1
54 130 1
55 130 1
57 130 1
58 130 1
65 130 1
66 130 1
68 130 1
71 130 1
72 130 1
73 130 1
74 130 1
75 130 1
79 130 1
84 130 1
85 130 1
86 130 1
87 130 1
88 130 1
89 130 1
90 130 1
91 130 1
94 130 1
96 130 1
99 130 1
107 130 1
110 130 1
115 130 1
118 130 1
120 130 1
121 130 1
122 130 1
125 130 1
127 130 1
128 130 1
129 130 1
131 130 1
133 130 1
1 131 1
4 131 1
8 131 1
10 131 1
11 131 1
12 131 1
18 131 1
19 131 1
20 131 1
22 131 1
23 131 1
26 131 1
31 131 1
32 131 1
35 131 1
36 131 1
37 131 1
38 131 1
42 131 1
50 131 1
51 131 1
52 131 1
55 131 1
56 131 1
58 131 1
60 131 1
61 131 1
64 131 1
65 131 1
67 131 1
68 131 1
69 131 1
70 131 1
74 131 1
75 131 1
76 131 1
81 131 1
85 131 1
87 131 1
89 131 1
90 131 1
92 131 1
93 131 1
97 131 1
100 131 1
101 131 1
103 131 1
107 131 1
110 131 1
111 131 1
112 131 1
113 131 1
117 131 1
119 131 1
123 131 1
126 131 1
127 131 1
128 131 1
130 131 1
131 131 1
132 131 1
135 131 1
3 132 1
4 132 1
9 132 1
10 132 1
11 132 1
16 132 1
17 132 1
19 132 1
21 132 1
22 132 1
26 132 1
30 132 1
31 132 1
32 132 1
38 132 1
40 132 1
43 132 1
47 132 1
51 132 1
52 132 1
55 132 1
57 132 1
58 132 1
60 132 1
61 132 1
64 132 1
66 132 1
70 132 1
71 132 1
74 132 1
75 132 1
78 132 1
79 132 1
80 132 1
83 132 1
85 132 1
87 132 1
88 132 1
89 132 1
91 132 1
92 132 1
94 132 1
97 132 1
98 132 1
100 132 1
101 132 1
104 132 1
105 132 1
110 132 1
111 132 1
114 132 1
116 132 1
117 132 1
119 132 1
123 132 1
124 132 1
126 132 1
129 132 1
130 132 1
132 132 1
133 132 1
134 132 1
135 132 1
136 132 1
1 133 1
2 133 1
6 133 1
7 133 1
8 133 1
14 133 1
15 133 1
16 133 1
20 133 1
21 133 1
22 133 1
23 133 1
24 133 1
27 133 1
31 133 1
33 133 1
34 133 1
36 133 1
37 133 1
38 133 1
39 133 1
41 133 1
44 133 1
45 133 1
48 133 1
52 133 1
56 133 1
61 133 1
62 133 1
65 133 1
67 133 1
68 133 1
72 133 1
73 133 1
74 133 1
75 133 1
80 133 1
85 133 1
86 133 1
89 133 1
90 133 1
91 133 1
92 133 1
95 133 1
98 133 1
100 133 1
101 133 1
103 133 1
106 133 1
108 133 1
109 133 1
110 133 1
113 133 1
115 133 1
116 133 1
117 133 1
119 133 1
123 133 1
124 133 1
125 133 1
131 133 1
132 133 1
133 133 1
134 133 1
1 134 1
3 134 1
4 134 1
6 134 1
7 134 1
8 134 1
11 134 1
13 134 1
14 134 1
18 134 1
19 134 1
22 134 1
23 134 1
25 134 1
26 134 1
30 134 1
33 134 1
35 134 1
37 134 1
41 134 1
43 134 1
44 134 1
45 134 1
46 134 1
48 134 1
49 134 1
51 134 1
52 134 1
53 134 1
57 134 1
62 134 1
63 134 1
64 134 1
65 134 1
71 134 1
72 134 1
74 134 1
76 134 1
78 134 1
80 134 1
81 134 1
83 134 1
85 134 1
87 134 1
88 134 1
96 134 1
98 134 1
102 134 1
104 134 1
112 134 1
113 134 1
117 134 1
121 134 1
123 134 1
125 134 1
128 134 1
130 134 1
132 134 1
133 134 1
135 134 1
136 134 1
1 135 1
2 135 1
9 135 1
11 135 1
12 135 1
13 135 1
14 135 1
16 135 1
17 135 1
18 135 1
21 135 1
23 135 1
25 135 1
27 135 1
30 135 1
33 135 1
34 135 1
35 135 1
37 135 1
41 135 1
44 135 1
45 135 1
47 135 1
51 135 1
56 135 1
59 135 1
61 135 1
64 135 1
65 135 1
67 135 1
72 135 1
78 135 1
79 135 1
82 135 1
86 135 1
87 135 1
88 135 1
89 135 1
92 135 1
93 135 1
95 135 1
97 135 1
98 135 1
99 135 1
105 135 1
107 135 1
108 135 1
109 135 1
111 135 1
114 135 1
115 135 1
117 135 1
118 135 1
120 135 1
124 135 1
125 135 1
126 135 1
127 135 1
129 135 1
136 135 1
1 136 1
10 136 1
12 136 1
13 136 1
15 136 1
16 136 1
17 136 1
18 136 1
20 136 1
22 136 1
24 136 1
25 136 1
29 136 1
33 136 1
34 136 1
35 136 1
36 136 1
37 136 1
38 136 1
39 136 1
43 136 1
45 136 1
47 136 1
50 136 1
53 136 1
55 136 1
56 136 1
58 136 1
59 136 1
60 136 1
61 136 1
62 136 1
64 136 1
65 136 1
73 136 1
76 136 1
77 136 1
78 136 1
82 136 1
84 136 1
85 136 1
87 136 1
88 136 1
89 136 1
92 136 1
93 136 1
94 136 1
96 136 1
98 136 1
100 136 1
101 136 1
103 136 1
106 136 1
108 136 1
110 136 1
112 136 1
115 136 1
116 136 1
119 136 1
122 136 1
123 136 1
124 136 1
125 136 1
129 136 1
131 136 1
132 136 1
133 136 1
135 136 1
1 137 1
6 137 1
7 137 1
8 137 1
10 137 1
12 137 1
17 137 1
19 137 1
20 137 1
22 137 1
25 137 1
27 137 1
28 137 1
29 137 1
30 137 1
32 137 1
33 137 1
35 137 1
37 137 1
38 137 1
39 137 1
41 137 1
44 137 1
45 137 1
46 137 1
48 137 1
51 137 1
57 137 1
59 137 1
61 137 1
65 137 1
70 137 1
71 137 1
77 137 1
81 137 1
82 137 1
85 137 1
89 137 1
90 137 1
93 137 1
97 137 1
99 137 1
101 137 1
102 137 1
106 137 1
109 137 1
111 137 1
112 137 1
116 137 1
121 137 1
123 137 1
124 137 1
126 137 1
127 137 1
129 137 1
130 137 1
131 137 1
132 137 1
134 137 1
135 137 1
3 138 1
7 138 1
8 138 1
9 138 1
11 138 1
16 138 1
19 138 1
20 138 1
21 138 1
24 138 1
26 138 1
27 138 1
28 138 1
29 138 1
31 138 1
33 138 1
35 138 1
36 138 1
39 138 1
40 138 1
41 138 1
42 138 1
47 138 1
48 138 1
51 138 1
52 138 1
54 138 1
55 138 1
56 138 1
58 138 1
59 138 1
60 138 1
61 138 1
63 138 1
70 138 1
73 138 1
77 138 1
79 138 1
80 138 1
83 138 1
87 138 1
88 138 1
91 138 1
92 138 1
94 138 1
95 138 1
96 138 1
99 138 1
100 138 1
101 138 1
102 138 1
103 138 1
104 138 1
109 138 1
111 138 1
112 138 1
113 138 1
116 138 1
117 138 1
122 138 1
123 138 1
124 138 1
125 138 1
126 138 1
130 138 1
131 138 1
1 139 1
2 139 1
3 139 1
6 139 1
7 139 1
9 139 1
11 139 1
14 139 1
15 139 1
16 139 1
19 139 1
21 139 1
22 139 1
24 139 1
26 139 1
28 139 1
29 139 1
34 139 1
35 139 1
37 139 1
39 139 1
40 139 1
43 139 1
44 139 1
46 139 1
48 139 1
49 139 1
51 139 1
53 139 1
54 139 1
56 139 1
57 139 1
61 139 1
62 139 1
64 139 1
67 139 1
71 139 1
73 139 1
75 139 1
78 139 1
83 139 1
86 139 1
88 139 1
89 139 1
90 139 1
91 139 1
92 139 1
95 139 1
98 139 1
101 139 1
103 139 1
106 139 1
108 139 1
112 139 1
114 139 1
115 139 1
117 139 1
118 139 1
119 139 1
120 139 1
121 139 1
122 139 1
123 139 1
125 139 1
126 139 1
130 139 1
132 139 1
136 139 1
1 140 1
2 140 1
3 140 1
4 140 1
7 140 1
8 140 1
10 140 1
13 140 1
14 140 1
15 140 1
18 140 1
21 140 1
23 140 1
25 140 1
26 140 1
27 140 1
28 140 1
32 140 1
34 140 1
37 140 1
39 140 1
40 140 1
45 140 1
50 140 1
51 140 1
53 140 1
56 140 1
57 140 1
59 140 1
62 140 1
65 140 1
72 140 1
74 140 1
78 140 1
80 140 1
84 140 1
87 140 1
88 140 1
91 140 1
93 140 1
94 140 1
95 140 1
96 140 1
97 140 1
100 140 1
101 140 1
104 140 1
105 140 1
106 140 1
112 140 1
114 140 1
116 140 1
117 140 1
118 140 1
120 140 1
122 140 1
128 140 1
133 140 1
134 140 1
135 140 1
2 141 1
3 141 1
4 141 1
6 141 1
7 141 1
10 141 1
11 141 1
12 141 1
13 141 1
16 141 1
17 141 1
18 141 1
23 141 1
26 141 1
29 141 1
30 141 1
31 141 1
36 141 1
37 141 1
38 141 1
39 141 1
42 141 1
43 141 1
44 141 1
45 141 1
46 141 1
48 141 1
49 141 1
50 141 1
51 141 1
52 141 1
53 141 1
55 141 1
57 141 1
60 141 1
62 141 1
64 141 1
72 141 1
75 141 1
82 141 1
83 141 1
88 141 1
89 141 1
90 141 1
93 141 1
94 141 1
95 141 1
97 141 1
98 141 1
101 141 1
102 141 1
105 141 1
106 141 1
107 141 1
109 141 1
110 141 1
112 141 1
113 141 1
116 141 1
118 141 1
119 141 1
123 141 1
124 141 1
125 141 1
126 141 1
127 141 1
132 141 1
133 141 1
134 141 1
1 142 1
2 142 1
3 142 1
6 142 1
7 142 1
8 142 1
9 142 1
10 142 1
12 142 1
16 142 1
17 142 1
18 142 1
20 142 1
22 142 1
28 142 1
29 142 1
30 142 1
32 142 1
36 142 1
37 142 1
39 142 1
40 142 1
42 142 1
44 142 1
46 142 1
47 142 1
50 142 1
51 142 1
52 142 1
53 142 1
54 142 1
55 142 1
58 142 1
62 142 1
63 142 1
64 142 1
65 142 1
67 142 1
69 142 1
73 142 1
74 142 1
76 142 1
77 142 1
78 142 1
80 142 1
84 142 1
85 142 1
88 142 1
90 142 1
91 142 1
92 142 1
94 142 1
95 142 1
99 142 1
101 142 1
102 142 1
109 142 1
110 142 1
111 142 1
112 142 1
113 142 1
115 142 1
117 142 1
118 142 1
121 142 1
123 142 1
124 142 1
125 142 1
126 142 1
127 142 1
132 142 1
133 142 1
134 142 1
2 143 1
3 143 1
10 143 1
11 143 1
14 143 1
15 143 1
17 143 1
19 143 1
20 143 1
22 143 1
23 143 1
24 143 1
25 143 1
28 143 1
30 143 1
31 143 1
32 143 1
33 143 1
38 143 1
40 143 1
42 143 1
46 143 1
48 143 1
50 143 1
51 143 1
55 143 1
56 143 1
57 143 1
58 143 1
59 143 1
60 143 1
61 143 1
64 143 1
66 143 1
67 143 1
70 143 1
82 143 1
85 143 1
88 143 1
90 143 1
92 143 1
94 143 1
96 143 1
97 143 1
98 143 1
100 143 1
102 143 1
107 143 1
108 143 1
109 143 1
110 143 1
117 143 1
118 143 1
120 143 1
122 143 1
124 143 1
127 143 1
128 143 1
132 143 1
133 143 1
134 143 1
136 143 1
1 144 1
2 144 1
6 144 1
9 144 1
10 144 1
13 144 1
14 144 1
19 144 1
20 144 1
21 144 1
22 144 1
23 144 1
24 144 1
26 144 1
27 144 1
29 144 1
30 144 1
31 144 1
34 144 1
35 144 1
36 144 1
37 144 1
41 144 1
43 144 1
44 144 1
45 144 1
46 144 1
48 144 1
50 144 1
51 144 1
52 144 1
53 144 1
55 144 1
59 144 1
60 144 1
61 144 1
64 144 1
68 144 1
76 144 1
77 144 1
83 144 1
84 144 1
90 144 1
93 144 1
95 144 1
98 144 1
101 144 1
103 144 1
104 144 1
106 144 1
110 144 1
114 144 1
118 144 1
119 144 1
123 144 1
124 144 1
125 144 1
127 144 1
129 144 1
132 144 1
134 144 1
136 144 1
3 145 1
8 145 1
10 145 1
12 145 1
13 145 1
14 145 1
15 145 1
16 145 1
18 145 1
19 145 1
21 145 1
24 145 1
27 145 1
28 145 1
34 145 1
37 145 1
38 145 1
41 145 1
45 145 1
47 145 1
48 145 1
49 145 1
50 145 1
51 145 1
52 145 1
53 145 1
54 145 1
56 145 1
60 145 1
64 145 1
69 145 1
70 145 1
71 145 1
72 145 1
73 145 1
80 145 1
81 145 1
82 145 1
83 145 1
84 145 1
85 145 1
87 145 1
88 145 1
95 145 1
100 145 1
101 145 1
104 145 1
106 145 1
108 145 1
109 145 1
111 145 1
114 145 1
119 145 1
122 145 1
131 145 1
132 145 1
133 145 1
134 145 1
135 145 1
2 146 1
4 146 1
9 146 1
11 146 1
12 146 1
13 146 1
14 146 1
16 146 1
17 146 1
18 146 1
21 146 1
23 146 1
25 146 1
27 146 1
33 146 1
34 146 1
40 146 1
42 146 1
43 146 1
45 146 1
46 146 1
48 146 1
49 146 1
51 146 1
53 146 1
54 146 1
56 146 1
59 146 1
61 146 1
62 146 1
65 146 1
66 146 1
67 146 1
69 146 1
72 146 1
73 146 1
77 146 1
79 146 1
80 146 1
81 146 1
83 146 1
84 146 1
85 146 1
86 146 1
89 146 1
91 146 1
93 146 1
94 146 1
95 146 1
96 146 1
97 146 1
99 146 1
100 146 1
101 146 1
103 146 1
107 146 1
108 146 1
109 146 1
111 146 1
113 146 1
117 146 1
118 146 1
119 146 1
122 146 1
123 146 1
124 146 1
125 146 1
127 146 1
128 146 1
129 146 1
130 146 1
135 146 1
136 146 1
3 147 1
4 147 1
7 147 1
8 147 1
9 147 1
12 147 1
13 147 1
14 147 1
15 147 1
17 147 1
20 147 1
23 147 1
26 147 1
27 147 1
29 147 1
30 147 1
32 147 1
35 147 1
36 147 1
39 147 1
41 147 1
42 147 1
43 147 1
44 147 1
46 147 1
47 147 1
50 147 1
51 147 1
54 147 1
55 147 1
57 147 1
60 147 1
62 147 1
63 147 1
66 147 1
67 147 1
68 147 1
69 147 1
70 147 1
71 147 1
73 147 1
75 147 1
76 147 1
78 147 1
79 147 1
84 147 1
90 147 1
101 147 1
103 147 1
104 147 1
105 147 1
106 147 1
107 147 1
108 147 1
109 147 1
114 147 1
115 147 1
118 147 1
119 147 1
120 147 1
126 147 1
128 147 1
129 147 1
131 147 1
132 147 1
135 147 1
2 148 1
4 148 1
6 148 1
8 148 1
11 148 1
12 148 1
13 148 1
14 148 1
15 148 1
16 148 1
19 148 1
20 148 1
22 148 1
28 148 1
29 148 1
31 148 1
32 148 1
33 148 1
34 148 1
38 148 1
40 148 1
43 148 1
44 148 1
45 148 1
46 148 1
48 148 1
49 148 1
50 148 1
51 148 1
53 148 1
55 148 1
56 148 1
57 148 1
66 148 1
67 148 1
68 148 1
69 148 1
70 148 1
72 148 1
74 148 1
75 148 1
82 148 1
85 148 1
86 148 1
87 148 1
91 148 1
94 148 1
95 148 1
96 148 1
97 148 1
98 148 1
99 148 1
100 148 1
104 148 1
106 148 1
107 148 1
108 148 1
109 148 1
110 148 1
111 148 1
113 148 1
114 148 1
117 148 1
118 148 1
123 148 1
124 148 1
126 148 1
127 148 1
130 148 1
131 148 1
135 148 1
136 148 1
3 149 1
4 149 1
6 149 1
8 149 1
9 149 1
11 149 1
12 149 1
13 149 1
19 149 1
21 149 1
22 149 1
23 149 1
24 149 1
25 149 1
28 149 1
29 149 1
31 149 1
32 149 1
33 149 1
35 149 1
37 149 1
38 149 1
39 149 1
42 149 1
47 149 1
48 149 1
49 149 1
51 149 1
53 149 1
55 149 1
59 149 1
62 149 1
66 149 1
68 149 1
70 149 1
72 149 1
74 149 1
75 149 1
77 149 1
78 149 1
81 149 1
82 149 1
84 149 1
85 149 1
86 149 1
87 149 1
88 149 1
89 149 1
90 149 1
92 149 1
98 149 1
99 149 1
101 149 1
102 149 1
104 149 1
106 149 1
109 149 1
110 149 1
111 149 1
112 149 1
113 149 1
115 149 1
119 149 1
121 149 1
122 149 1
124 149 1
125 149 1
126 149 1
130 149 1
135 149 1
2 150 1
4 150 1
6 150 1
7 150 1
10 150 1
11 150 1
12 150 1
15 150 1
16 150 1
21 150 1
22 150 1
23 150 1
24 150 1
25 150 1
26 150 1
27 150 1
28 150 1
30 150 1
31 150 1
34 150 1
35 150 1
36 150 1
37 150 1
38 150 1
44 150 1
47 150 1
48 150 1
49 150 1
50 150 1
51 150 1
52 150 1
53 150 1
55 150 1
57 150 1
58 150 1
59 150 1
61 150 1
63 150 1
67 150 1
68 150 1
70 150 1
71 150 1
73 150 1
74 150 1
76 150 1
77 150 1
79 150 1
80 150 1
83 150 1
84 150 1
85 150 1
86 150 1
88 150 1
89 150 1
91 150 1
93 150 1
95 150 1
97 150 1
98 150 1
99 150 1
101 150 1
103 150 1
104 150 1
106 150 1
112 150 1
113 150 1
117 150 1
119 150 1
120 150 1
122 150 1
126 150 1
127 150 1
128 150 1
133 150 1
135 150 1
136 150 1
1 151 1
2 151 1
4 151 1
34 151 1
36 151 1
38 151 1
40 151 1
42 151 1
43 151 1
45 151 1
47 151 1
48 151 1
51 151 1
52 151 1
54 151 1
56 151 1
58 151 1
61 151 1
65 151 1
67 151 1
69 151 1
70 151 1
71 151 1
72 151 1
76 151 1
77 151 1
78 151 1
80 151 1
81 151 1
82 151 1
86 151 1
87 151 1
88 151 1
89 151 1
95 151 1
96 151 1
97 151 1
99 151 1
100 151 1
106 151 1
108 151 1
109 151 1
113 151 1
115 151 1
116 151 1
117 151 1
121 151 1
123 151 1
126 151 1
128 151 1
130 151 1
131 151 1
1 152 1
5 152 1
34 152 1
36 152 1
37 152 1
38 152 1
42 152 1
43 152 1
45 152 1
46 152 1
47 152 1
48 152 1
51 152 1
53 152 1
54 152 1
55 152 1
57 152 1
59 152 1
63 152 1
65 152 1
66 152 1
69 152 1
70 152 1
75 152 1
76 152 1
77 152 1
78 152 1
79 152 1
80 152 1
81 152 1
84 152 1
85 152 1
88 152 1
89 152 1
91 152 1
99 152 1
100 152 1
101 152 1
108 152 1
111 152 1
112 152 1
114 152 1
116 152 1
117 152 1
118 152 1
120 152 1
123 152 1
124 152 1
125 152 1
128 152 1
130 152 1
1 153 1
2 153 1
34 153 1
37 153 1
38 153 1
39 153 1
40 153 1
46 153 1
49 153 1
51 153 1
52 153 1
57 153 1
60 153 1
61 153 1
62 153 1
65 153 1
66 153 1
67 153 1
68 153 1
70 153 1
71 153 1
72 153 1
74 153 1
75 153 1
77 153 1
78 153 1
79 153 1
83 153 1
84 153 1
85 153 1
87 153 1
89 153 1
94 153 1
95 153 1
96 153 1
97 153 1
98 153 1
99 153 1
101 153 1
102 153 1
106 153 1
108 153 1
110 153 1
112 153 1
115 153 1
116 153 1
119 153 1
120 153 1
121 153 1
122 153 1
123 153 1
124 153 1
125 153 1
126 153 1
127 153 1
128 153 1
130 153 1
131 153 1
134 153 1
1 154 1
4 154 1
5 154 1
34 154 1
36 154 1
38 154 1
39 154 1
40 154 1
41 154 1
43 154 1
49 154 1
53 154 1
54 154 1
58 154 1
59 154 1
61 154 1
63 154 1
64 154 1
65 154 1
68 154 1
69 154 1
70 154 1
71 154 1
73 154 1
74 154 1
76 154 1
78 154 1
80 154 1
82 154 1
83 154 1
85 154 1
86 154 1
87 154 1
88 154 1
89 154 1
90 154 1
96 154 1
99 154 1
100 154 1
102 154 1
107 154 1
108 154 1
109 154 1
112 154 1
114 154 1
115 154 1
117 154 1
118 154 1
119 154 1
121 154 1
123 154 1
124 154 1
125 154 1
126 154 1
127 154 1
128 154 1
129 154 1
130 154 1
134 154 1
1 155 1
2 155 1
3 155 1
4 155 1
34 155 1
37 155 1
41 155 1
42 155 1
45 155 1
47 155 1
50 155 1
51 155 1
52 155 1
54 155 1
55 155 1
57 155 1
58 155 1
59 155 1
61 155 1
62 155 1
63 155 1
65 155 1
66 155 1
70 155 1
73 155 1
75 155 1
82 155 1
83 155 1
84 155 1
86 155 1
91 155 1
93 155 1
95 155 1
99 155 1
100 155 1
102 155 1
103 155 1
105 155 1
109 155 1
110 155 1
113 155 1
119 155 1
121 155 1
123 155 1
124 155 1
125 155 1
127 155 1
130 155 1
1 156 1
2 156 1
3 156 1
4 156 1
5 156 1
36 156 1
39 156 1
42 156 1
44 156 1
46 156 1
47 156 1
50 156 1
53 156 1
54 156 1
55 156 1
57 156 1
58 156 1
59 156 1
60 156 1
62 156 1
63 156 1
64 156 1
65 156 1
68 156 1
69 156 1
72 156 1
74 156 1
76 156 1
77 156 1
86 156 1
87 156 1
91 156 1
92 156 1
94 156 1
96 156 1
97 156 1
99 156 1
102 156 1
104 156 1
105 156 1
108 156 1
109 156 1
110 156 1
112 156 1
113 156 1
114 156 1
117 156 1
119 156 1
120 156 1
122 156 1
124 156 1
126 156 1
127 156 1
134 156 1
34 157 1
36 157 1
37 157 1
38 157 1
43 157 1
44 157 1
45 157 1
46 157 1
47 157 1
48 157 1
49 157 1
51 157 1
54 157 1
55 157 1
57 157 1
60 157 1
62 157 1
64 157 1
65 157 1
66 157 1
72 157 1
73 157 1
75 157 1
76 157 1
77 157 1
78 157 1
80 157 1
81 157 1
82 157 1
85 157 1
86 157 1
87 157 1
88 157 1
90 157 1
91 157 1
94 157 1
99 157 1
100 157 1
101 157 1
102 157 1
104 157 1
109 157 1
110 157 1
113 157 1
114 157 1
115 157 1
116 157 1
118 157 1
121 157 1
122 157 1
123 157 1
129 157 1
130 157 1
131 157 1
3 158 1
5 158 1
36 158 1
37 158 1
39 158 1
41 158 1
42 158 1
43 158 1
45 158 1
47 158 1
48 158 1
49 158 1
52 158 1
54 158 1
57 158 1
58 158 1
60 158 1
61 158 1
64 158 1
67 158 1
68 158 1
69 158 1
70 158 1
72 158 1
74 158 1
75 158 1
77 158 1
79 158 1
80 158 1
81 158 1
83 158 1
84 158 1
85 158 1
89 158 1
90 158 1
91 158 1
93 158 1
94 158 1
100 158 1
101 158 1
102 158 1
105 158 1
107 158 1
111 158 1
113 158 1
114 158 1
115 158 1
116 158 1
117 158 1
118 158 1
122 158 1
124 158 1
126 158 1
130 158 1
131 158 1
134 158 1
1 159 1
4 159 1
36 159 1
37 159 1
38 159 1
39 159 1
41 159 1
43 159 1
46 159 1
50 159 1
51 159 1
52 159 1
53 159 1
54 159 1
55 159 1
56 159 1
57 159 1
59 159 1
63 159 1
65 159 1
66 159 1
69 159 1
72 159 1
73 159 1
74 159 1
77 159 1
78 159 1
79 159 1
80 159 1
83 159 1
85 159 1
89 159 1
90 159 1
92 159 1
93 159 1
94 159 1
95 159 1
98 159 1
105 159 1
111 159 1
112 159 1
113 159 1
116 159 1
117 159 1
118 159 1
119 159 1
126 159 1
129 159 1
131 159 1
3 160 1
5 160 1
34 160 1
36 160 1
38 160 1
41 160 1
42 160 1
45 160 1
46 160 1
47 160 1
52 160 1
55 160 1
59 160 1
61 160 1
64 160 1
65 160 1
66 160 1
67 160 1
68 160 1
69 160 1
70 160 1
71 160 1
72 160 1
80 160 1
81 160 1
82 160 1
83 160 1
85 160 1
87 160 1
88 160 1
90 160 1
92 160 1
93 160 1
95 160 1
96 160 1
98 160 1
103 160 1
109 160 1
110 160 1
116 160 1
117 160 1
120 160 1
121 160 1
122 160 1
126 160 1
128 160 1
130 160 1
131 160 1
1 161 1
3 161 1
37 161 1
38 161 1
40 161 1
45 161 1
46 161 1
48 161 1
49 161 1
50 161 1
51 161 1
52 161 1
53 161 1
54 161 1
56 161 1
58 161 1
59 161 1
60 161 1
61 161 1
62 161 1
66 161 1
68 161 1
71 161 1
72 161 1
73 161 1
79 161 1
80 161 1
82 161 1
83 161 1
84 161 1
86 161 1
88 161 1
92 161 1
93 161 1
97 161 1
100 161 1
108 161 1
109 161 1
111 161 1
113 161 1
116 161 1
118 161 1
119 161 1
120 161 1
121 161 1
125 161 1
126 161 1
131 161 1
134 161 1
2 162 1
3 162 1
5 162 1
34 162 1
36 162 1
37 162 1
40 162 1
42 162 1
46 162 1
48 162 1
50 162 1
52 162 1
58 162 1
60 162 1
67 162 1
68 162 1
70 162 1
72 162 1
73 162 1
77 162 1
78 162 1
81 162 1
82 162 1
84 162 1
86 162 1
87 162 1
91 162 1
92 162 1
95 162 1
96 162 1
97 162 1
98 162 1
99 162 1
100 162 1
102 162 1
103 162 1
104 162 1
105 162 1
106 162 1
107 162 1
108 162 1
109 162 1
113 162 1
114 162 1
115 162 1
120 162 1
127 162 1
128 162 1
129 162 1
130 162 1
34 163 1
36 163 1
38 163 1
41 163 1
45 163 1
50 163 1
57 163 1
59 163 1
60 163 1
61 163 1
62 163 1
64 163 1
69 163 1
71 163 1
73 163 1
78 163 1
79 163 1
81 163 1
82 163 1
85 163 1
87 163 1
88 163 1
91 163 1
94 163 1
96 163 1
98 163 1
99 163 1
100 163 1
102 163 1
106 163 1
108 163 1
110 163 1
113 163 1
116 163 1
118 163 1
120 163 1
122 163 1
125 163 1
126 163 1
128 163 1
129 163 1
130 163 1
3 164 1
5 164 1
36 164 1
37 164 1
43 164 1
44 164 1
47 164 1
50 164 1
58 164 1
59 164 1
61 164 1
62 164 1
63 164 1
64 164 1
66 164 1
67 164 1
72 164 1
77 164 1
78 164 1
79 164 1
80 164 1
82 164 1
83 164 1
84 164 1
89 164 1
90 164 1
94 164 1
97 164 1
98 164 1
102 164 1
103 164 1
104 164 1
105 164 1
106 164 1
109 164 1
110 164 1
111 164 1
113 164 1
114 164 1
118 164 1
120 164 1
121 164 1
125 164 1
127 164 1
128 164 1
129 164 1
131 164 1
1 165 1
4 165 1
34 165 1
41 165 1
42 165 1
46 165 1
48 165 1
49 165 1
50 165 1
52 165 1
53 165 1
57 165 1
60 165 1
63 165 1
65 165 1
67 165 1
68 165 1
69 165 1
71 165 1
72 165 1
76 165 1
78 165 1
85 165 1
89 165 1
90 165 1
93 165 1
95 165 1
97 165 1
98 165 1
99 165 1
100 165 1
103 165 1
105 165 1
107 165 1
109 165 1
110 165 1
111 165 1
117 165 1
118 165 1
119 165 1
121 165 1
122 165 1
125 165 1
126 165 1
127 165 1
128 165 1
129 165 1
134 165 1
3 166 1
5 166 1
34 166 1
36 166 1
41 166 1
44 166 1
45 166 1
46 166 1
49 166 1
50 166 1
53 166 1
56 166 1
58 166 1
61 166 1
63 166 1
65 166 1
66 166 1
69 166 1
70 166 1
73 166 1
75 166 1
78 166 1
80 166 1
83 166 1
88 166 1
92 166 1
93 166 1
96 166 1
98 166 1
100 166 1
101 166 1
103 166 1
104 166 1
106 166 1
110 166 1
111 166 1
115 166 1
118 166 1
120 166 1
121 166 1
122 166 1
123 166 1
125 166 1
127 166 1
128 166 1
131 166 1
134 166 1
1 167 1
3 167 1
36 167 1
39 167 1
46 167 1
47 167 1
51 167 1
52 167 1
53 167 1
56 167 1
57 167 1
60 167 1
62 167 1
63 167 1
64 167 1
65 167 1
66 167 1
68 167 1
70 167 1
71 167 1
74 167 1
77 167 1
78 167 1
82 167 1
84 167 1
86 167 1
88 167 1
89 167 1
92 167 1
96 167 1
99 167 1
103 167 1
104 167 1
106 167 1
107 167 1
108 167 1
111 167 1
112 167 1
115 167 1
120 167 1
123 167 1
124 167 1
125 167 1
126 167 1
127 167 1
128 167 1
131 167 1
2 168 1
3 168 1
4 168 1
5 168 1
34 168 1
36 168 1
38 168 1
39 168 1
41 168 1
43 168 1
44 168 1
45 168 1
46 168 1
47 168 1
48 168 1
50 168 1
52 168 1
55 168 1
57 168 1
59 168 1
60 168 1
62 168 1
68 168 1
69 168 1
71 168 1
73 168 1
76 168 1
77 168 1
78 168 1
80 168 1
84 168 1
85 168 1
86 168 1
88 168 1
91 168 1
95 168 1
98 168 1
99 168 1
100 168 1
104 168 1
105 168 1
106 168 1
108 168 1
109 168 1
110 168 1
112 168 1
114 168 1
119 168 1
124 168 1
125 168 1
127 168 1
128 168 1
129 168 1
130 168 1
36 169 1
39 169 1
40 169 1
41 169 1
42 169 1
43 169 1
45 169 1
46 169 1
47 169 1
48 169 1
52 169 1
55 169 1
57 169 1
58 169 1
59 169 1
61 169 1
66 169 1
69 169 1
70 169 1
71 169 1
73 169 1
75 169 1
76 169 1
77 169 1
82 169 1
83 169 1
84 169 1
85 169 1
87 169 1
88 169 1
89 169 1
91 169 1
94 169 1
95 169 1
97 169 1
99 169 1
101 169 1
103 169 1
105 169 1
106 169 1
111 169 1
112 169 1
116 169 1
117 169 1
123 169 1
125 169 1
127 169 1
128 169 1
130 169 1
5 170 1
37 170 1
38 170 1
40 170 1
42 170 1
45 170 1
46 170 1
47 170 1
48 170 1
49 170 1
50 170 1
53 170 1
55 170 1
58 170 1
59 170 1
60 170 1
62 170 1
63 170 1
65 170 1
66 170 1
68 170 1
72 170 1
74 170 1
75 170 1
76 170 1
77 170 1
78 170 1
83 170 1
84 170 1
85 170 1
86 170 1
87 170 1
88 170 1
89 170 1
90 170 1
94 170 1
100 170 1
102 170 1
103 170 1
106 170 1
108 170 1
109 170 1
110 170 1
117 170 1
120 170 1
124 170 1
125 170 1
126 170 1
127 170 1
129 170 1
134 170 1
1 171 1
2 171 1
3 171 1
4 171 1
34 171 1
36 171 1
39 171 1
40 171 1
41 171 1
44 171 1
46 171 1
48 171 1
49 171 1
51 171 1
52 171 1
54 171 1
55 171 1
58 171 1
60 171 1
62 171 1
64 171 1
65 171 1
67 171 1
68 171 1
72 171 1
73 171 1
74 171 1
75 171 1
76 171 1
77 171 1
78 171 1
81 171 1
82 171 1
83 171 1
84 171 1
85 171 1
90 171 1
91 171 1
93 171 1
95 171 1
96 171 1
97 171 1
98 171 1
99 171 1
100 171 1
101 171 1
107 171 1
109 171 1
111 171 1
112 171 1
113 171 1
116 171 1
117 171 1
119 171 1
120 171 1
121 171 1
123 171 1
126 171 1
127 171 1
129 171 1
130 171 1
1 172 1
2 172 1
3 172 1
5 172 1
39 172 1
42 172 1
43 172 1
44 172 1
46 172 1
47 172 1
48 172 1
51 172 1
56 172 1
58 172 1
59 172 1
62 172 1
63 172 1
65 172 1
69 172 1
70 172 1
71 172 1
72 172 1
73 172 1
74 172 1
75 172 1
77 172 1
79 172 1
80 172 1
83 172 1
85 172 1
86 172 1
87 172 1
92 172 1
93 172 1
94 172 1
96 172 1
99 172 1
100 172 1
101 172 1
102 172 1
104 172 1
109 172 1
110 172 1
111 172 1
116 172 1
117 172 1
118 172 1
119 172 1
120 172 1
121 172 1
123 172 1
124 172 1
126 172 1
128 172 1
129 172 1
131 172 1
134 172 1
3 173 1
34 173 1
36 173 1
38 173 1
43 173 1
46 173 1
47 173 1
49 173 1
55 173 1
56 173 1
58 173 1
61 173 1
62 173 1
64 173 1
65 173 1
66 173 1
67 173 1
74 173 1
77 173 1
80 173 1
83 173 1
85 173 1
86 173 1
88 173 1
90 173 1
91 173 1
92 173 1
96 173 1
97 173 1
98 173 1
101 173 1
102 173 1
105 173 1
106 173 1
107 173 1
108 173 1
109 173 1
110 173 1
111 173 1
113 173 1
116 173 1
118 173 1
119 173 1
120 173 1
122 173 1
123 173 1
124 173 1
125 173 1
126 173 1
129 173 1
134 173 1
2 174 1
4 174 1
5 174 1
38 174 1
39 174 1
40 174 1
44 174 1
45 174 1
46 174 1
47 174 1
50 174 1
52 174 1
53 174 1
54 174 1
56 174 1
57 174 1
58 174 1
61 174 1
62 174 1
63 174 1
68 174 1
69 174 1
71 174 1
81 174 1
83 174 1
84 174 1
85 174 1
87 174 1
91 174 1
93 174 1
94 174 1
95 174 1
96 174 1
99 174 1
102 174 1
103 174 1
104 174 1
107 174 1
108 174 1
110 174 1
111 174 1
112 174 1
115 174 1
116 174 1
117 174 1
119 174 1
121 174 1
122 174 1
123 174 1
124 174 1
126 174 1
127 174 1
128 174 1
129 174 1
131 174 1
2 175 1
4 175 1
34 175 1
36 175 1
44 175 1
45 175 1
48 175 1
49 175 1
53 175 1
54 175 1
55 175 1
57 175 1
59 175 1
61 175 1
63 175 1
64 175 1
66 175 1
67 175 1
69 175 1
70 175 1
71 175 1
72 175 1
73 175 1
76 175 1
77 175 1
79 175 1
80 175 1
81 175 1
82 175 1
83 175 1
88 175 1
90 175 1
92 175 1
94 175 1
95 175 1
99 175 1
100 175 1
101 175 1
102 175 1
103 175 1
106 175 1
109 175 1
111 175 1
115 175 1
117 175 1
119 175 1
121 175 1
122 175 1
123 175 1
124 175 1
125 175 1
129 175 1
134 175 1
1 176 1
3 176 1
4 176 1
5 176 1
34 176 1
36 176 1
37 176 1
41 176 1
45 176 1
47 176 1
52 176 1
56 176 1
57 176 1
58 176 1
59 176 1
60 176 1
62 176 1
65 176 1
66 176 1
67 176 1
68 176 1
70 176 1
72 176 1
75 176 1
76 176 1
77 176 1
78 176 1
79 176 1
81 176 1
82 176 1
84 176 1
85 176 1
87 176 1
90 176 1
93 176 1
95 176 1
98 176 1
100 176 1
101 176 1
102 176 1
106 176 1
107 176 1
108 176 1
110 176 1
111 176 1
114 176 1
118 176 1
120 176 1
121 176 1
123 176 1
124 176 1
126 176 1
127 176 1
131 176 1
1 177 1
3 177 1
4 177 1
34 177 1
36 177 1
41 177 1
42 177 1
44 177 1
46 177 1
47 177 1
49 177 1
51 177 1
57 177 1
58 177 1
59 177 1
60 177 1
61 177 1
63 177 1
68 177 1
71 177 1
72 177 1
73 177 1
74 177 1
75 177 1
78 177 1
79 177 1
81 177 1
83 177 1
85 177 1
87 177 1
88 177 1
92 177 1
93 177 1
95 177 1
96 177 1
98 177 1
103 177 1
105 177 1
108 177 1
111 177 1
113 177 1
114 177 1
115 177 1
120 177 1
124 177 1
129 177 1
131 177 1
2 178 1
3 178 1
4 178 1
5 178 1
34 178 1
38 178 1
39 178 1
40 178 1
43 178 1
44 178 1
45 178 1
47 178 1
48 178 1
51 178 1
53 178 1
56 178 1
57 178 1
60 178 1
63 178 1
64 178 1
65 178 1
67 178 1
70 178 1
71 178 1
72 178 1
73 178 1
74 178 1
78 178 1
79 178 1
80 178 1
82 178 1
83 178 1
84 178 1
87 178 1
89 178 1
92 178 1
95 178 1
97 178 1
100 178 1
101 178 1
102 178 1
104 178 1
105 178 1
107 178 1
108 178 1
109 178 1
111 178 1
115 178 1
117 178 1
118 178 1
120 178 1
121 178 1
122 178 1
126 178 1
129 178 1
130 178 1
131 178 1
134 178 1
5 180 1
4 181 1
3 268 1
2 269 1
1 270 1
6 271 1
7 272 1
8 273 1
11 274 1
10 275 1
9 276 1
15 277 1
14 278 1
13 279 1
12 280 1
16 281 1
18 282 1
17 283 1
20 284 1
19 285 1
21 286 1
25 287 1
24 288 1
23 289 1
22 290 1
26 291 1
32 292 1
31 293 1
30 294 1
29 295 1
28 296 1
27 297 1
33 298 1
35 299 1
34 301 1
36 302 1
37 303 1
39 304 1
40 305 1
38 306 1
43 307 1
48 308 1
45 309 1
47 310 1
42 311 1
46 312 1
49 313 1
41 314 1
50 315 1
44 316 1
52 317 1
53 318 1
56 319 1
51 320 1
54 321 1
57 322 1
58 323 1
55 324 1
60 325 1
61 326 1
59 327 1
62 328 1
64 329 1
67 330 1
97 331 1
63 332 1
98 333 1
96 334 1
99 335 1
100 336 1
101 337 1
102 338 1
107 339 1
104 340 1
105 341 1
103 342 1
106 343 1
108 344 1
112 345 1
109 346 1
111 347 1
110 348 1
115 349 1
114 350 1
113 351 1
116 352 1
117 353 1
120 354 1
119 355 1
121 356 1
118 357 1
122 358 1
34 360 1
36 360 1
37 360 1
38 360 1
39 360 1
40 360 1
41 360 1
42 360 1
43 360 1
44 360 1
45 360 1
46 360 1
47 360 1
48 360 1
49 360 1
50 360 1
51 360 1
52 360 1
53 360 1
54 360 1
55 360 1
56 360 1
57 360 1
58 360 1
59 360 1
60 360 1
61 360 1
62 360 1
63 360 1
64 360 1
67 360 1
96 360 1
97 360 1
98 360 1
99 360 1
100 360 1
101 360 1
102 360 1
103 360 1
104 360 1
105 360 1
106 360 1
107 360 1
108 360 1
109 360 1
110 360 1
111 360 1
112 360 1
113 360 1
114 360 1
115 360 1
116 360 1
117 360 1
118 360 1
119 360 1
120 360 1
121 360 1
122 360 1
123 361 1
124 362 1
126 364 1
128 365 1
125 366 1
127 367 1
34 420 1
36 420 1
37 420 1
38 420 1
39 420 1
40 420 1
41 420 1
42 420 1
43 420 1
44 420 1
45 420 1
46 420 1
47 420 1
48 420 1
49 420 1
50 420 1
51 420 1
52 420 1
53 420 1
54 420 1
55 420 1
56 420 1
57 420 1
58 420 1
59 420 1
60 420 1
61 420 1
62 420 1
64 420 1
67 420 1
65 451 1
69 452 1
66 453 1
68 454 1
73 455 1
72 456 1
70 457 1
76 458 1
75 459 1
74 460 1
71 461 1
78 462 1
80 463 1
81 464 1
79 465 1
82 466 1
77 467 1
85 468 1
83 469 1
87 470 1
89 471 1
88 472 1
84 473 1
86 474 1
91 475 1
94 476 1
90 477 1
93 478 1
92 479 1
95 480 1
129 481 1
131 482 1
130 483 1
134 515 1
1 573 1
2 573 1
3 573 1
7 573 1
8 573 1
11 573 1
15 573 1
16 573 1
18 573 1
20 573 1
21 573 1
25 573 1
26 573 1
32 573 1
33 573 1
35 573 1
97 573 1
99 573 1
101 573 1
103 573 1
107 573 1
108 573 1
109 573 1
111 573 1
112 573 1
114 573 1
116 573 1
119 573 1
120 573 1
122 573 1
123 573 1
129 573 1
130 573 1
1 574 1
2 574 1
3 574 1
6 574 1
8 574 1
10 574 1
11 574 1
14 574 1
17 574 1
18 574 1
19 574 1
24 574 1
25 574 1
31 574 1
32 574 1
34 574 1
35 574 1
36 574 1
37 574 1
38 574 1
39 574 1
40 574 1
41 574 1
42 574 1
43 574 1
44 574 1
45 574 1
46 574 1
47 574 1
48 574 1
49 574 1
50 574 1
51 574 1
52 574 1
53 574 1
54 574 1
55 574 1
56 574 1
57 574 1
58 574 1
59 574 1
60 574 1
61 574 1
62 574 1
63 574 1
64 574 1
67 574 1
100 574 1
102 574 1
104 574 1
106 574 1
109 574 1
110 574 1
111 574 1
112 574 1
113 574 1
117 574 1
119 574 1
121 574 1
123 574 1
124 574 1
126 574 1
129 574 1
131 574 1
3 575 1
6 575 1
8 575 1
9 575 1
10 575 1
13 575 1
15 575 1
16 575 1
17 575 1
18 575 1
23 575 1
24 575 1
25 575 1
26 575 1
30 575 1
31 575 1
32 575 1
33 575 1
35 575 1
63 575 1
96 575 1
100 575 1
101 575 1
102 575 1
104 575 1
106 575 1
107 575 1
108 575 1
109 575 1
111 575 1
113 575 1
116 575 1
117 575 1
120 575 1
124 575 1
128 575 1
129 575 1
131 575 1
2 576 1
7 576 1
9 576 1
11 576 1
12 576 1
14 576 1
15 576 1
17 576 1
18 576 1
20 576 1
22 576 1
23 576 1
24 576 1
29 576 1
30 576 1
31 576 1
32 576 1
35 576 1
63 576 1
96 576 1
97 576 1
100 576 1
103 576 1
106 576 1
109 576 1
113 576 1
114 576 1
115 576 1
118 576 1
121 576 1
122 576 1
125 576 1
129 576 1
130 576 1
131 576 1
2 577 1
6 577 1
7 577 1
10 577 1
11 577 1
13 577 1
14 577 1
17 577 1
18 577 1
19 577 1
21 577 1
22 577 1
23 577 1
25 577 1
28 577 1
29 577 1
30 577 1
31 577 1
32 577 1
33 577 1
34 577 1
35 577 1
36 577 1
37 577 1
38 577 1
39 577 1
40 577 1
41 577 1
42 577 1
43 577 1
44 577 1
45 577 1
46 577 1
47 577 1
48 577 1
49 577 1
50 577 1
51 577 1
52 577 1
53 577 1
54 577 1
55 577 1
56 577 1
57 577 1
58 577 1
59 577 1
60 577 1
61 577 1
62 577 1
64 577 1
67 577 1
96 577 1
99 577 1
100 577 1
101 577 1
102 577 1
104 577 1
105 577 1
108 577 1
110 577 1
111 577 1
114 577 1
115 577 1
116 577 1
117 577 1
121 577 1
122 577 1
126 577 1
127 577 1
131 577 1
1 578 1
4 578 1
7 578 1
8 578 1
9 578 1
10 578 1
12 578 1
13 578 1
17 578 1
20 578 1
21 578 1
22 578 1
24 578 1
25 578 1
26 578 1
27 578 1
28 578 1
29 578 1
30 578 1
31 578 1
34 578 1
35 578 1
36 578 1
37 578 1
38 578 1
39 578 1
40 578 1
41 578 1
42 578 1
43 578 1
44 578 1
45 578 1
46 578 1
47 578 1
48 578 1
49 578 1
50 578 1
51 578 1
52 578 1
53 578 1
54 578 1
55 578 1
56 578 1
57 578 1
58 578 1
59 578 1
60 578 1
61 578 1
62 578 1
64 578 1
67 578 1
99 578 1
100 578 1
101 578 1
102 578 1
103 578 1
105 578 1
107 578 1
110 578 1
112 578 1
113 578 1
114 578 1
115 578 1
117 578 1
118 578 1
120 578 1
126 578 1
128 578 1
129 578 1
130 578 1
1 579 1
2 579 1
3 579 1
6 579 1
7 579 1
9 579 1
12 579 1
18 579 1
19 579 1
21 579 1
23 579 1
24 579 1
27 579 1
28 579 1
29 579 1
30 579 1
35 579 1
63 579 1
96 579 1
98 579 1
101 579 1
103 579 1
105 579 1
107 579 1
109 579 1
110 579 1
114 579 1
116 579 1
117 579 1
118 579 1
119 579 1
120 579 1
121 579 1
122 579 1
125 579 1
128 579 1
130 579 1
131 579 1
134 579 1
1 580 1
2 580 1
4 580 1
7 580 1
8 580 1
15 580 1
16 580 1
17 580 1
21 580 1
22 580 1
23 580 1
25 580 1
27 580 1
28 580 1
29 580 1
33 580 1
63 580 1
97 580 1
100 580 1
101 580 1
105 580 1
107 580 1
108 580 1
109 580 1
110 580 1
112 580 1
114 580 1
116 580 1
125 580 1
126 580 1
127 580 1
129 580 1
130 580 1
2 581 1
4 581 1
6 581 1
7 581 1
14 581 1
15 581 1
16 581 1
21 581 1
22 581 1
24 581 1
27 581 1
28 581 1
32 581 1
34 581 1
36 581 1
37 581 1
38 581 1
39 581 1
40 581 1
41 581 1
42 581 1
43 581 1
44 581 1
45 581 1
46 581 1
47 581 1
48 581 1
49 581 1
50 581 1
51 581 1
52 581 1
53 581 1
54 581 1
55 581 1
56 581 1
57 581 1
58 581 1
59 581 1
60 581 1
61 581 1
62 581 1
63 581 1
64 581 1
67 581 1
97 581 1
98 581 1
99 581 1
102 581 1
104 581 1
107 581 1
108 581 1
113 581 1
114 581 1
115 581 1
116 581 1
117 581 1
119 581 1
120 581 1
122 581 1
127 581 1
128 581 1
129 581 1
130 581 1
131 581 1
1 582 1
4 582 1
6 582 1
7 582 1
8 582 1
13 582 1
14 582 1
18 582 1
23 582 1
25 582 1
26 582 1
27 582 1
31 582 1
33 582 1
34 582 1
36 582 1
37 582 1
38 582 1
39 582 1
40 582 1
41 582 1
42 582 1
43 582 1
44 582 1
45 582 1
46 582 1
47 582 1
48 582 1
49 582 1
50 582 1
51 582 1
52 582 1
53 582 1
54 582 1
55 582 1
56 582 1
57 582 1
58 582 1
59 582 1
60 582 1
61 582 1
62 582 1
63 582 1
64 582 1
67 582 1
96 582 1
98 582 1
100 582 1
104 582 1
105 582 1
107 582 1
112 582 1
113 582 1
114 582 1
116 582 1
117 582 1
119 582 1
120 582 1
121 582 1
125 582 1
126 582 1
129 582 1
130 582 1
131 582 1
134 582 1
1 583 1
2 583 1
3 583 1
12 583 1
13 583 1
15 583 1
16 583 1
17 583 1
18 583 1
20 583 1
21 583 1
22 583 1
24 583 1
25 583 1
26 583 1
30 583 1
34 583 1
36 583 1
37 583 1
38 583 1
39 583 1
40 583 1
41 583 1
42 583 1
43 583 1
44 583 1
45 583 1
46 583 1
47 583 1
48 583 1
49 583 1
50 583 1
51 583 1
52 583 1
53 583 1
54 583 1
55 583 1
56 583 1
57 583 1
58 583 1
59 583 1
60 583 1
61 583 1
62 583 1
63 583 1
64 583 1
67 583 1
99 583 1
100 583 1
101 583 1
102 583 1
103 583 1
106 583 1
109 583 1
110 583 1
115 583 1
116 583 1
119 583 1
120 583 1
127 583 1
128 583 1
131 583 1
134 583 1
1 584 1
2 584 1
3 584 1
4 584 1
6 584 1
12 584 1
14 584 1
16 584 1
17 584 1
18 584 1
19 584 1
20 584 1
23 584 1
24 584 1
25 584 1
26 584 1
29 584 1
32 584 1
63 584 1
96 584 1
97 584 1
99 584 1
103 584 1
104 584 1
105 584 1
109 584 1
110 584 1
112 584 1
113 584 1
116 584 1
118 584 1
120 584 1
122 584 1
125 584 1
126 584 1
129 584 1
130 584 1
8 585 1
11 585 1
13 585 1
15 585 1
17 585 1
19 585 1
22 585 1
23 585 1
24 585 1
25 585 1
26 585 1
28 585 1
31 585 1
33 585 1
34 585 1
35 585 1
36 585 1
37 585 1
38 585 1
39 585 1
40 585 1
41 585 1
42 585 1
43 585 1
44 585 1
45 585 1
46 585 1
47 585 1
48 585 1
49 585 1
50 585 1
51 585 1
52 585 1
53 585 1
54 585 1
55 585 1
56 585 1
57 585 1
58 585 1
59 585 1
60 585 1
61 585 1
62 585 1
64 585 1
67 585 1
96 585 1
99 585 1
102 585 1
103 585 1
104 585 1
109 585 1
110 585 1
111 585 1
113 585 1
116 585 1
118 585 1
119 585 1
121 585 1
122 585 1
127 585 1
128 585 1
129 585 1
130 585 1
131 585 1
3 586 1
6 586 1
10 586 1
11 586 1
12 586 1
14 586 1
20 586 1
21 586 1
22 586 1
23 586 1
24 586 1
26 586 1
27 586 1
30 586 1
32 586 1
35 586 1
99 586 1
100 586 1
105 586 1
106 586 1
107 586 1
110 586 1
111 586 1
115 586 1
116 586 1
117 586 1
118 586 1
121 586 1
122 586 1
125 586 1
126 586 1
129 586 1
130 586 1
131 586 1
134 586 1
1 587 1
3 587 1
6 587 1
8 587 1
9 587 1
10 587 1
11 587 1
13 587 1
15 587 1
18 587 1
19 587 1
20 587 1
21 587 1
22 587 1
23 587 1
29 587 1
31 587 1
35 587 1
63 587 1
96 587 1
98 587 1
101 587 1
102 587 1
103 587 1
105 587 1
106 587 1
108 587 1
113 587 1
114 587 1
120 587 1
121 587 1
122 587 1
123 587 1
127 587 1
128 587 1
131 587 1
134 587 1
2 588 1
3 588 1
4 588 1
7 588 1
9 588 1
10 588 1
11 588 1
12 588 1
14 588 1
15 588 1
17 588 1
19 588 1
21 588 1
22 588 1
25 588 1
26 588 1
28 588 1
30 588 1
34 588 1
36 588 1
37 588 1
38 588 1
39 588 1
40 588 1
41 588 1
42 588 1
43 588 1
44 588 1
45 588 1
46 588 1
47 588 1
48 588 1
49 588 1
50 588 1
51 588 1
52 588 1
53 588 1
54 588 1
55 588 1
56 588 1
57 588 1
58 588 1
59 588 1
60 588 1
61 588 1
62 588 1
64 588 1
67 588 1
96 588 1
98 588 1
99 588 1
102 588 1
103 588 1
106 588 1
107 588 1
108 588 1
112 588 1
113 588 1
116 588 1
118 588 1
119 588 1
123 588 1
124 588 1
125 588 1
126 588 1
130 588 1
3 589 1
6 589 1
7 589 1
9 589 1
10 589 1
11 589 1
13 589 1
14 589 1
18 589 1
24 589 1
27 589 1
29 589 1
33 589 1
34 589 1
35 589 1
36 589 1
37 589 1
38 589 1
39 589 1
40 589 1
41 589 1
42 589 1
43 589 1
44 589 1
45 589 1
46 589 1
47 589 1
48 589 1
49 589 1
50 589 1
51 589 1
52 589 1
53 589 1
54 589 1
55 589 1
56 589 1
57 589 1
58 589 1
59 589 1
60 589 1
61 589 1
62 589 1
63 589 1
64 589 1
67 589 1
98 589 1
99 589 1
102 589 1
105 589 1
107 589 1
108 589 1
109 589 1
110 589 1
112 589 1
113 589 1
115 589 1
116 589 1
118 589 1
122 589 1
124 589 1
127 589 1
128 589 1
130 589 1
2 590 1
3 590 1
4 590 1
6 590 1
7 590 1
8 590 1
9 590 1
10 590 1
12 590 1
13 590 1
15 590 1
17 590 1
23 590 1
28 590 1
33 590 1
34 590 1
35 590 1
36 590 1
37 590 1
38 590 1
39 590 1
40 590 1
41 590 1
42 590 1
43 590 1
44 590 1
45 590 1
46 590 1
47 590 1
48 590 1
49 590 1
50 590 1
51 590 1
52 590 1
53 590 1
54 590 1
55 590 1
56 590 1
57 590 1
58 590 1
59 590 1
60 590 1
61 590 1
62 590 1
63 590 1
64 590 1
67 590 1
97 590 1
99 590 1
101 590 1
102 590 1
105 590 1
106 590 1
108 590 1
110 590 1
113 590 1
118 590 1
119 590 1
120 590 1
121 590 1
123 590 1
125 590 1
129 590 1
3 591 1
4 591 1
6 591 1
9 591 1
12 591 1
14 591 1
18 591 1
21 591 1
22 591 1
25 591 1
26 591 1
27 591 1
32 591 1
33 591 1
34 591 1
36 591 1
37 591 1
38 591 1
39 591 1
40 591 1
41 591 1
42 591 1
43 591 1
44 591 1
45 591 1
46 591 1
47 591 1
48 591 1
49 591 1
50 591 1
51 591 1
52 591 1
53 591 1
54 591 1
55 591 1
56 591 1
57 591 1
58 591 1
59 591 1
60 591 1
61 591 1
62 591 1
63 591 1
64 591 1
67 591 1
97 591 1
98 591 1
99 591 1
100 591 1
101 591 1
102 591 1
109 591 1
111 591 1
114 591 1
115 591 1
118 591 1
120 591 1
121 591 1
124 591 1
126 591 1
127 591 1
130 591 1
131 591 1
2 592 1
3 592 1
7 592 1
13 592 1
15 592 1
16 592 1
17 592 1
24 592 1
25 592 1
26 592 1
31 592 1
32 592 1
33 592 1
34 592 1
35 592 1
36 592 1
37 592 1
38 592 1
39 592 1
40 592 1
41 592 1
42 592 1
43 592 1
44 592 1
45 592 1
46 592 1
47 592 1
48 592 1
49 592 1
50 592 1
51 592 1
52 592 1
53 592 1
54 592 1
55 592 1
56 592 1
57 592 1
58 592 1
59 592 1
60 592 1
61 592 1
62 592 1
63 592 1
64 592 1
67 592 1
96 592 1
98 592 1
100 592 1
101 592 1
102 592 1
107 592 1
110 592 1
111 592 1
113 592 1
114 592 1
118 592 1
119 592 1
122 592 1
126 592 1
128 592 1
130 592 1
134 592 1
4 593 1
7 593 1
11 593 1
12 593 1
14 593 1
15 593 1
16 593 1
21 593 1
23 593 1
24 593 1
25 593 1
26 593 1
30 593 1
31 593 1
33 593 1
96 593 1
97 593 1
98 593 1
102 593 1
103 593 1
104 593 1
108 593 1
109 593 1
110 593 1
111 593 1
112 593 1
113 593 1
114 593 1
115 593 1
119 593 1
120 593 1
121 593 1
123 593 1
125 593 1
126 593 1
128 593 1
129 593 1
130 593 1
3 594 1
8 594 1
10 594 1
13 594 1
14 594 1
16 594 1
18 594 1
22 594 1
23 594 1
24 594 1
25 594 1
29 594 1
30 594 1
32 594 1
35 594 1
97 594 1
98 594 1
100 594 1
101 594 1
102 594 1
103 594 1
104 594 1
108 594 1
117 594 1
120 594 1
122 594 1
123 594 1
124 594 1
125 594 1
126 594 1
127 594 1
128 594 1
131 594 1
134 594 1
1 595 1
3 595 1
7 595 1
8 595 1
9 595 1
12 595 1
13 595 1
15 595 1
16 595 1
17 595 1
20 595 1
21 595 1
22 595 1
23 595 1
24 595 1
25 595 1
28 595 1
29 595 1
31 595 1
32 595 1
33 595 1
35 595 1
98 595 1
100 595 1
101 595 1
104 595 1
107 595 1
110 595 1
112 595 1
113 595 1
115 595 1
117 595 1
118 595 1
119 595 1
120 595 1
121 595 1
123 595 1
124 595 1
125 595 1
127 595 1
128 595 1
129 595 1
2 596 1
8 596 1
11 596 1
12 596 1
14 596 1
15 596 1
16 596 1
18 596 1
19 596 1
20 596 1
22 596 1
23 596 1
24 596 1
25 596 1
26 596 1
27 596 1
28 596 1
30 596 1
31 596 1
35 596 1
96 596 1
101 596 1
102 596 1
104 596 1
105 596 1
109 596 1
114 596 1
115 596 1
116 596 1
118 596 1
119 596 1
120 596 1
121 596 1
122 596 1
124 596 1
125 596 1
127 596 1
129 596 1
131 596 1
2 597 1
3 597 1
6 597 1
7 597 1
8 597 1
10 597 1
13 597 1
14 597 1
15 597 1
17 597 1
19 597 1
20 597 1
22 597 1
23 597 1
24 597 1
25 597 1
27 597 1
29 597 1
30 597 1
35 597 1
97 597 1
101 597 1
102 597 1
105 597 1
108 597 1
109 597 1
112 597 1
113 597 1
116 597 1
117 597 1
118 597 1
120 597 1
121 597 1
123 597 1
126 597 1
127 597 1
131 597 1
134 597 1
1 598 1
2 598 1
7 598 1
8 598 1
9 598 1
11 598 1
12 598 1
13 598 1
14 598 1
19 598 1
20 598 1
21 598 1
22 598 1
23 598 1
24 598 1
26 598 1
28 598 1
29 598 1
33 598 1
96 598 1
97 598 1
98 598 1
99 598 1
100 598 1
101 598 1
104 598 1
105 598 1
106 598 1
108 598 1
110 598 1
113 598 1
114 598 1
115 598 1
121 598 1
124 598 1
128 598 1
129 598 1
130 598 1
134 598 1
2 599 1
3 599 1
6 599 1
7 599 1
10 599 1
12 599 1
13 599 1
18 599 1
19 599 1
20 599 1
22 599 1
23 599 1
27 599 1
28 599 1
33 599 1
98 599 1
99 599 1
101 599 1
103 599 1
104 599 1
106 599 1
108 599 1
110 599 1
112 599 1
114 599 1
116 599 1
117 599 1
121 599 1
123 599 1
125 599 1
129 599 1
130 599 1
131 599 1
134 599 1
1 600 1
2 600 1
3 600 1
4 600 1
6 600 1
7 600 1
8 600 1
9 600 1
12 600 1
16 600 1
17 600 1
19 600 1
21 600 1
22 600 1
26 600 1
27 600 1
33 600 1
34 600 1
35 600 1
36 600 1
37 600 1
38 600 1
39 600 1
40 600 1
41 600 1
42 600 1
43 600 1
44 600 1
45 600 1
46 600 1
47 600 1
48 600 1
49 600 1
50 600 1
51 600 1
52 600 1
53 600 1
54 600 1
55 600 1
56 600 1
57 600 1
58 600 1
59 600 1
60 600 1
61 600 1
62 600 1
63 600 1
64 600 1
67 600 1
97 600 1
98 600 1
99 600 1
101 600 1
103 600 1
104 600 1
107 600 1
110 600 1
111 600 1
114 600 1
116 600 1
119 600 1
121 600 1
122 600 1
124 600 1
127 600 1
130 600 1
131 600 1
134 600 1
135 601 1
132 602 1
136 603 1
133 605 1
132 660 1
133 660 1
135 660 1
136 660 1
36 687 1
37 687 1
38 687 1
41 687 1
48 687 1
49 687 1
50 687 1
52 687 1
53 687 1
54 687 1
58 687 1
62 687 1
64 687 1
67 687 1
97 687 1
100 687 1
101 687 1
102 687 1
104 687 1
105 687 1
108 687 1
109 687 1
113 687 1
116 687 1
117 687 1
119 687 1
121 687 1
123 687 1
124 687 1
127 687 1
133 687 1
135 687 1
136 687 1
37 688 1
40 688 1
41 688 1
42 688 1
46 688 1
47 688 1
50 688 1
51 688 1
53 688 1
59 688 1
60 688 1
61 688 1
64 688 1
67 688 1
96 688 1
98 688 1
99 688 1
101 688 1
102 688 1
105 688 1
106 688 1
110 688 1
114 688 1
115 688 1
116 688 1
117 688 1
121 688 1
122 688 1
126 688 1
127 688 1
133 688 1
34 689 1
38 689 1
39 689 1
42 689 1
44 689 1
46 689 1
49 689 1
50 689 1
54 689 1
56 689 1
59 689 1
61 689 1
62 689 1
67 689 1
96 689 1
99 689 1
100 689 1
102 689 1
103 689 1
107 689 1
108 689 1
113 689 1
114 689 1
115 689 1
117 689 1
118 689 1
120 689 1
123 689 1
128 689 1
132 689 1
135 689 1
136 689 1
37 690 1
38 690 1
39 690 1
42 690 1
45 690 1
47 690 1
48 690 1
50 690 1
53 690 1
54 690 1
55 690 1
56 690 1
58 690 1
60 690 1
61 690 1
63 690 1
67 690 1
96 690 1
97 690 1
98 690 1
102 690 1
103 690 1
105 690 1
108 690 1
109 690 1
110 690 1
111 690 1
115 690 1
117 690 1
118 690 1
121 690 1
123 690 1
124 690 1
125 690 1
132 690 1
133 690 1
136 690 1
34 696 1
36 696 1
39 696 1
40 696 1
41 696 1
44 696 1
46 696 1
47 696 1
48 696 1
49 696 1
50 696 1
57 696 1
59 696 1
62 696 1
69 696 1
70 696 1
73 696 1
76 696 1
78 696 1
80 696 1
85 696 1
87 696 1
91 696 1
93 696 1
94 696 1
95 696 1
96 696 1
97 696 1
99 696 1
100 696 1
102 696 1
103 696 1
105 696 1
107 696 1
109 696 1
110 696 1
112 696 1
117 696 1
118 696 1
119 696 1
121 696 1
122 696 1
124 696 1
125 696 1
126 696 1
127 696 1
128 696 1
129 696 1
133 696 1
134 696 1
136 696 1
34 697 1
39 697 1
43 697 1
46 697 1
47 697 1
48 697 1
51 697 1
53 697 1
54 697 1
55 697 1
56 697 1
57 697 1
59 697 1
60 697 1
61 697 1
63 697 1
65 697 1
66 697 1
67 697 1
72 697 1
75 697 1
76 697 1
80 697 1
81 697 1
83 697 1
89 697 1
90 697 1
92 697 1
94 697 1
99 697 1
100 697 1
101 697 1
103 697 1
104 697 1
106 697 1
107 697 1
109 697 1
111 697 1
115 697 1
118 697 1
120 697 1
121 697 1
122 697 1
125 697 1
127 697 1
128 697 1
131 697 1
132 697 1
133 697 1
134 697 1
135 697 1
136 697 1
36 698 1
37 698 1
38 698 1
39 698 1
42 698 1
44 698 1
45 698 1
46 698 1
47 698 1
48 698 1
49 698 1
51 698 1
52 698 1
53 698 1
56 698 1
60 698 1
61 698 1
62 698 1
63 698 1
64 698 1
67 698 1
68 698 1
73 698 1
74 698 1
75 698 1
76 698 1
78 698 1
79 698 1
80 698 1
81 698 1
85 698 1
88 698 1
90 698 1
91 698 1
94 698 1
97 698 1
101 698 1
104 698 1
108 698 1
109 698 1
110 698 1
115 698 1
117 698 1
118 698 1
120 698 1
121 698 1
122 698 1
127 698 1
128 698 1
130 698 1
132 698 1
134 698 1
135 698 1
136 698 1
36 699 1
38 699 1
44 699 1
48 699 1
50 699 1
55 699 1
57 699 1
58 699 1
60 699 1
62 699 1
71 699 1
72 699 1
73 699 1
74 699 1
75 699 1
79 699 1
80 699 1
81 699 1
82 699 1
83 699 1
84 699 1
90 699 1
93 699 1
94 699 1
96 699 1
97 699 1
99 699 1
100 699 1
101 699 1
103 699 1
104 699 1
106 699 1
107 699 1
108 699 1
109 699 1
110 699 1
113 699 1
116 699 1
117 699 1
121 699 1
123 699 1
125 699 1
126 699 1
129 699 1
133 699 1
134 699 1
135 699 1
36 700 1
38 700 1
41 700 1
43 700 1
44 700 1
45 700 1
48 700 1
49 700 1
50 700 1
53 700 1
54 700 1
55 700 1
60 700 1
61 700 1
62 700 1
63 700 1
67 700 1
70 700 1
71 700 1
72 700 1
74 700 1
77 700 1
78 700 1
79 700 1
81 700 1
82 700 1
86 700 1
87 700 1
90 700 1
92 700 1
93 700 1
97 700 1
99 700 1
106 700 1
109 700 1
111 700 1
112 700 1
113 700 1
115 700 1
118 700 1
119 700 1
120 700 1
121 700 1
123 700 1
128 700 1
129 700 1
131 700 1
134 700 1
34 701 1
36 701 1
37 701 1
42 701 1
44 701 1
47 701 1
49 701 1
51 701 1
52 701 1
55 701 1
57 701 1
59 701 1
62 701 1
64 701 1
69 701 1
71 701 1
73 701 1
77 701 1
79 701 1
82 701 1
87 701 1
89 701 1
92 701 1
94 701 1
97 701 1
102 701 1
105 701 1
106 701 1
108 701 1
110 701 1
115 701 1
116 701 1
117 701 1
118 701 1
120 701 1
122 701 1
124 701 1
128 701 1
130 701 1
131 701 1
134 701 1
135 701 1
36 702 1
38 702 1
39 702 1
41 702 1
43 702 1
45 702 1
46 702 1
51 702 1
55 702 1
56 702 1
61 702 1
62 702 1
63 702 1
66 702 1
69 702 1
70 702 1
72 702 1
73 702 1
76 702 1
77 702 1
80 702 1
82 702 1
87 702 1
88 702 1
89 702 1
90 702 1
91 702 1
93 702 1
94 702 1
96 702 1
97 702 1
99 702 1
100 702 1
102 702 1
105 702 1
108 702 1
109 702 1
110 702 1
114 702 1
115 702 1
118 702 1
120 702 1
121 702 1
124 702 1
127 702 1
128 702 1
129 702 1
130 702 1
132 702 1
134 702 1
136 702 1
34 703 1
37 703 1
39 703 1
42 703 1
44 703 1
45 703 1
46 703 1
48 703 1
49 703 1
50 703 1
54 703 1
55 703 1
56 703 1
57 703 1
61 703 1
64 703 1
66 703 1
68 703 1
70 703 1
72 703 1
75 703 1
76 703 1
77 703 1
81 703 1
84 703 1
85 703 1
88 703 1
89 703 1
90 703 1
92 703 1
93 703 1
94 703 1
96 703 1
100 703 1
101 703 1
106 703 1
110 703 1
113 703 1
119 703 1
120 703 1
123 703 1
124 703 1
125 703 1
126 703 1
127 703 1
131 703 1
133 703 1
134 703 1
135 703 1
34 704 1
45 704 1
48 704 1
50 704 1
51 704 1
52 704 1
58 704 1
60 704 1
62 704 1
67 704 1
68 704 1
69 704 1
74 704 1
75 704 1
78 704 1
79 704 1
80 704 1
83 704 1
84 704 1
86 704 1
87 704 1
88 704 1
90 704 1
91 704 1
92 704 1
94 704 1
96 704 1
97 704 1
100 704 1
101 704 1
103 704 1
105 704 1
107 704 1
108 704 1
109 704 1
110 704 1
112 704 1
115 704 1
116 704 1
117 704 1
118 704 1
122 704 1
125 704 1
126 704 1
129 704 1
130 704 1
134 704 1
135 704 1
34 705 1
36 705 1
37 705 1
38 705 1
42 705 1
43 705 1
44 705 1
47 705 1
51 705 1
52 705 1
56 705 1
58 705 1
60 705 1
63 705 1
66 705 1
67 705 1
69 705 1
70 705 1
71 705 1
74 705 1
76 705 1
78 705 1
81 705 1
82 705 1
84 705 1
85 705 1
86 705 1
89 705 1
90 705 1
96 705 1
97 705 1
100 705 1
101 705 1
104 705 1
105 705 1
106 705 1
107 705 1
110 705 1
111 705 1
114 705 1
115 705 1
118 705 1
119 705 1
120 705 1
121 705 1
123 705 1
124 705 1
125 705 1
131 705 1
132 705 1
134 705 1
136 705 1
34 706 1
37 706 1
39 706 1
41 706 1
45 706 1
46 706 1
49 706 1
50 706 1
52 706 1
53 706 1
54 706 1
56 706 1
60 706 1
62 706 1
66 706 1
68 706 1
69 706 1
70 706 1
71 706 1
73 706 1
75 706 1
77 706 1
79 706 1
83 706 1
85 706 1
86 706 1
87 706 1
88 706 1
94 706 1
95 706 1
97 706 1
99 706 1
100 706 1
101 706 1
103 706 1
104 706 1
106 706 1
108 706 1
109 706 1
110 706 1
111 706 1
113 706 1
117 706 1
118 706 1
120 706 1
122 706 1
124 706 1
125 706 1
126 706 1
127 706 1
128 706 1
129 706 1
130 706 1
135 706 1
136 706 1
34 707 1
36 707 1
41 707 1
42 707 1
43 707 1
45 707 1
46 707 1
49 707 1
50 707 1
53 707 1
55 707 1
59 707 1
60 707 1
63 707 1
64 707 1
65 707 1
66 707 1
68 707 1
72 707 1
73 707 1
74 707 1
76 707 1
78 707 1
82 707 1
83 707 1
84 707 1
85 707 1
87 707 1
89 707 1
90 707 1
91 707 1
97 707 1
104 707 1
106 707 1
109 707 1
110 707 1
111 707 1
112 707 1
113 707 1
115 707 1
117 707 1
120 707 1
121 707 1
122 707 1
123 707 1
124 707 1
125 707 1
128 707 1
131 707 1
36 708 1
37 708 1
41 708 1
44 708 1
46 708 1
47 708 1
48 708 1
49 708 1
50 708 1
56 708 1
60 708 1
61 708 1
62 708 1
63 708 1
67 708 1
68 708 1
69 708 1
70 708 1
71 708 1
72 708 1
73 708 1
75 708 1
77 708 1
80 708 1
83 708 1
86 708 1
87 708 1
88 708 1
89 708 1
93 708 1
94 708 1
98 708 1
105 708 1
108 708 1
109 708 1
110 708 1
111 708 1
114 708 1
115 708 1
116 708 1
118 708 1
119 708 1
120 708 1
124 708 1
125 708 1
127 708 1
130 708 1
132 708 1
135 708 1
136 708 1
34 709 1
36 709 1
38 709 1
39 709 1
42 709 1
44 709 1
45 709 1
48 709 1
51 709 1
53 709 1
54 709 1
58 709 1
59 709 1
61 709 1
62 709 1
63 709 1
66 709 1
67 709 1
70 709 1
72 709 1
73 709 1
74 709 1
76 709 1
78 709 1
81 709 1
84 709 1
85 709 1
87 709 1
88 709 1
89 709 1
90 709 1
91 709 1
92 709 1
99 709 1
106 709 1
107 709 1
113 709 1
117 709 1
118 709 1
119 709 1
120 709 1
121 709 1
124 709 1
126 709 1
133 709 1
134 709 1
136 709 1
34 710 1
36 710 1
37 710 1
40 710 1
43 710 1
45 710 1
46 710 1
47 710 1
52 710 1
54 710 1
55 710 1
56 710 1
57 710 1
59 710 1
62 710 1
64 710 1
68 710 1
70 710 1
71 710 1
72 710 1
75 710 1
76 710 1
79 710 1
80 710 1
83 710 1
84 710 1
86 710 1
88 710 1
89 710 1
93 710 1
94 710 1
95 710 1
98 710 1
100 710 1
104 710 1
108 710 1
116 710 1
118 710 1
119 710 1
120 710 1
121 710 1
122 710 1
123 710 1
128 710 1
132 710 1
135 710 1
136 710 1
36 711 1
39 711 1
43 711 1
45 711 1
47 711 1
48 711 1
49 711 1
52 711 1
54 711 1
55 711 1
56 711 1
57 711 1
61 711 1
62 711 1
65 711 1
69 711 1
74 711 1
75 711 1
80 711 1
81 711 1
82 711 1
84 711 1
85 711 1
86 711 1
88 711 1
90 711 1
92 711 1
93 711 1
94 711 1
95 711 1
97 711 1
99 711 1
100 711 1
101 711 1
102 711 1
103 711 1
107 711 1
109 711 1
110 711 1
127 711 1
128 711 1
129 711 1
132 711 1
133 711 1
36 712 1
38 712 1
40 712 1
42 712 1
45 712 1
47 712 1
49 712 1
50 712 1
51 712 1
52 712 1
54 712 1
57 712 1
59 712 1
60 712 1
62 712 1
65 712 1
66 712 1
67 712 1
69 712 1
71 712 1
74 712 1
77 712 1
79 712 1
81 712 1
83 712 1
84 712 1
86 712 1
90 712 1
91 712 1
92 712 1
93 712 1
95 712 1
96 712 1
98 712 1
99 712 1
100 712 1
101 712 1
102 712 1
103 712 1
104 712 1
110 712 1
112 712 1
114 712 1
118 712 1
120 712 1
122 712 1
123 712 1
124 712 1
125 712 1
127 712 1
131 712 1
135 712 1
34 713 1
36 713 1
37 713 1
38 713 1
44 713 1
45 713 1
46 713 1
47 713 1
48 713 1
49 713 1
50 713 1
51 713 1
53 713 1
54 713 1
55 713 1
56 713 1
57 713 1
58 713 1
60 713 1
64 713 1
65 713 1
66 713 1
68 713 1
70 713 1
71 713 1
73 713 1
76 713 1
79 713 1
80 713 1
82 713 1
86 713 1
92 713 1
100 713 1
102 713 1
103 713 1
104 713 1
105 713 1
106 713 1
108 713 1
109 713 1
110 713 1
112 713 1
115 713 1
116 713 1
118 713 1
119 713 1
124 713 1
125 713 1
127 713 1
128 713 1
129 713 1
130 713 1
134 713 1
136 713 1
34 714 1
38 714 1
40 714 1
46 714 1
48 714 1
50 714 1
53 714 1
59 714 1
62 714 1
64 714 1
68 714 1
69 714 1
72 714 1
73 714 1
75 714 1
76 714 1
77 714 1
78 714 1
81 714 1
82 714 1
91 714 1
95 714 1
101 714 1
103 714 1
105 714 1
106 714 1
107 714 1
108 714 1
109 714 1
111 714 1
112 714 1
114 714 1
115 714 1
117 714 1
121 714 1
122 714 1
125 714 1
127 714 1
129 714 1
131 714 1
134 714 1
37 715 1
41 715 1
43 715 1
44 715 1
45 715 1
48 715 1
50 715 1
52 715 1
53 715 1
54 715 1
56 715 1
58 715 1
65 715 1
66 715 1
70 715 1
72 715 1
73 715 1
74 715 1
75 715 1
77 715 1
79 715 1
80 715 1
85 715 1
94 715 1
97 715 1
100 715 1
101 715 1
103 715 1
105 715 1
106 715 1
110 715 1
111 715 1
112 715 1
114 715 1
116 715 1
117 715 1
118 715 1
119 715 1
120 715 1
121 715 1
123 715 1
124 715 1
126 715 1
129 715 1
130 715 1
131 715 1
132 715 1
133 715 1
34 716 1
36 716 1
40 716 1
41 716 1
45 716 1
46 716 1
49 716 1
51 716 1
52 716 1
53 716 1
55 716 1
56 716 1
59 716 1
62 716 1
63 716 1
68 716 1
71 716 1
72 716 1
73 716 1
74 716 1
78 716 1
80 716 1
81 716 1
82 716 1
83 716 1
87 716 1
90 716 1
91 716 1
93 716 1
94 716 1
95 716 1
96 716 1
97 716 1
99 716 1
100 716 1
101 716 1
105 716 1
106 716 1
107 716 1
108 716 1
112 716 1
113 716 1
115 716 1
120 716 1
125 716 1
127 716 1
129 716 1
130 716 1
131 716 1
133 716 1
36 717 1
41 717 1
42 717 1
43 717 1
45 717 1
47 717 1
49 717 1
50 717 1
52 717 1
55 717 1
58 717 1
61 717 1
62 717 1
63 717 1
65 717 1
67 717 1
69 717 1
71 717 1
72 717 1
76 717 1
77 717 1
79 717 1
81 717 1
85 717 1
89 717 1
90 717 1
91 717 1
92 717 1
95 717 1
96 717 1
97 717 1
98 717 1
101 717 1
104 717 1
105 717 1
107 717 1
108 717 1
110 717 1
114 717 1
116 717 1
117 717 1
118 717 1
121 717 1
122 717 1
124 717 1
125 717 1
128 717 1
129 717 1
130 717 1
131 717 1
132 717 1
134 717 1
135 717 1
36 718 1
38 718 1
39 718 1
40 718 1
43 718 1
45 718 1
49 718 1
51 718 1
52 718 1
54 718 1
56 718 1
57 718 1
58 718 1
61 718 1
62 718 1
63 718 1
65 718 1
66 718 1
67 718 1
69 718 1
70 718 1
75 718 1
78 718 1
79 718 1
82 718 1
83 718 1
85 718 1
88 718 1
93 718 1
94 718 1
95 718 1
96 718 1
98 718 1
99 718 1
102 718 1
103 718 1
104 718 1
105 718 1
112 718 1
113 718 1
115 718 1
117 718 1
118 718 1
120 718 1
122 718 1
123 718 1
125 718 1
127 718 1
130 718 1
131 718 1
135 718 1
34 719 1
40 719 1
41 719 1
42 719 1
45 719 1
47 719 1
48 719 1
52 719 1
56 719 1
57 719 1
59 719 1
60 719 1
61 719 1
63 719 1
65 719 1
66 719 1
67 719 1
68 719 1
70 719 1
73 719 1
74 719 1
77 719 1
78 719 1
82 719 1
83 719 1
84 719 1
85 719 1
90 719 1
91 719 1
92 719 1
93 719 1
94 719 1
95 719 1
96 719 1
99 719 1
100 719 1
101 719 1
103 719 1
104 719 1
105 719 1
107 719 1
108 719 1
109 719 1
111 719 1
113 719 1
115 719 1
119 719 1
122 719 1
123 719 1
125 719 1
128 719 1
130 719 1
133 719 1
134 719 1
135 719 1
36 720 1
37 720 1
39 720 1
40 720 1
42 720 1
44 720 1
45 720 1
50 720 1
51 720 1
52 720 1
54 720 1
57 720 1
61 720 1
62 720 1
64 720 1
65 720 1
67 720 1
68 720 1
70 720 1
71 720 1
72 720 1
77 720 1
78 720 1
83 720 1
86 720 1
90 720 1
91 720 1
92 720 1
96 720 1
98 720 1
100 720 1
102 720 1
105 720 1
106 720 1
107 720 1
108 720 1
111 720 1
113 720 1
114 720 1
118 720 1
121 720 1
122 720 1
124 720 1
126 720 1
127 720 1
128 720 1
134 720 1
136 720 1
2 723 1
4 723 1
9 723 1
10 723 1
11 723 1
14 723 1
15 723 1
20 723 1
21 723 1
22 723 1
23 723 1
24 723 1
27 723 1
29 723 1
30 723 1
35 723 1
36 723 1
37 723 1
40 723 1
41 723 1
46 723 1
47 723 1
51 723 1
52 723 1
53 723 1
54 723 1
57 723 1
58 723 1
61 723 1
62 723 1
63 723 1
65 723 1
71 723 1
72 723 1
73 723 1
75 723 1
76 723 1
78 723 1
81 723 1
82 723 1
83 723 1
84 723 1
85 723 1
86 723 1
87 723 1
88 723 1
91 723 1
92 723 1
94 723 1
96 723 1
98 723 1
99 723 1
103 723 1
104 723 1
106 723 1
107 723 1
108 723 1
109 723 1
111 723 1
112 723 1
113 723 1
114 723 1
116 723 1
117 723 1
119 723 1
122 723 1
123 723 1
124 723 1
125 723 1
126 723 1
127 723 1
128 723 1
130 723 1
132 723 1
134 723 1
136 723 1
1 724 1
3 724 1
9 724 1
10 724 1
13 724 1
14 724 1
15 724 1
19 724 1
22 724 1
23 724 1
25 724 1
26 724 1
28 724 1
29 724 1
33 724 1
34 724 1
40 724 1
42 724 1
44 724 1
46 724 1
47 724 1
49 724 1
50 724 1
52 724 1
55 724 1
56 724 1
67 724 1
72 724 1
73 724 1
74 724 1
75 724 1
76 724 1
77 724 1
79 724 1
83 724 1
84 724 1
85 724 1
86 724 1
89 724 1
90 724 1
93 724 1
98 724 1
100 724 1
101 724 1
103 724 1
105 724 1
106 724 1
107 724 1
109 724 1
111 724 1
117 724 1
118 724 1
120 724 1
121 724 1
122 724 1
124 724 1
126 724 1
127 724 1
129 724 1
132 724 1
133 724 1
3 725 1
6 725 1
10 725 1
11 725 1
12 725 1
13 725 1
20 725 1
23 725 1
26 725 1
28 725 1
29 725 1
30 725 1
32 725 1
39 725 1
42 725 1
46 725 1
49 725 1
52 725 1
53 725 1
59 725 1
60 725 1
61 725 1
62 725 1
63 725 1
64 725 1
65 725 1
67 725 1
69 725 1
74 725 1
80 725 1
81 725 1
84 725 1
85 725 1
87 725 1
91 725 1
95 725 1
96 725 1
98 725 1
102 725 1
103 725 1
104 725 1
108 725 1
109 725 1
114 725 1
117 725 1
120 725 1
122 725 1
124 725 1
127 725 1
128 725 1
129 725 1
130 725 1
131 725 1
134 725 1
136 725 1
2 726 1
4 726 1
7 726 1
9 726 1
10 726 1
12 726 1
16 726 1
19 726 1
22 726 1
27 726 1
28 726 1
29 726 1
31 726 1
32 726 1
39 726 1
41 726 1
42 726 1
43 726 1
44 726 1
45 726 1
47 726 1
49 726 1
51 726 1
53 726 1
55 726 1
57 726 1
60 726 1
62 726 1
64 726 1
65 726 1
66 726 1
67 726 1
69 726 1
71 726 1
79 726 1
81 726 1
83 726 1
86 726 1
89 726 1
94 726 1
96 726 1
97 726 1
98 726 1
99 726 1
100 726 1
101 726 1
102 726 1
104 726 1
106 726 1
107 726 1
108 726 1
109 726 1
111 726 1
112 726 1
116 726 1
117 726 1
120 726 1
121 726 1
123 726 1
124 726 1
125 726 1
127 726 1
129 726 1
130 726 1
131 726 1
132 726 1
1 727 1
2 727 1
4 727 1
8 727 1
10 727 1
11 727 1
14 727 1
16 727 1
18 727 1
20 727 1
22 727 1
23 727 1
24 727 1
26 727 1
28 727 1
29 727 1
31 727 1
33 727 1
34 727 1
35 727 1
38 727 1
41 727 1
42 727 1
49 727 1
51 727 1
52 727 1
54 727 1
56 727 1
57 727 1
58 727 1
60 727 1
65 727 1
66 727 1
68 727 1
69 727 1
71 727 1
72 727 1
73 727 1
75 727 1
76 727 1
79 727 1
81 727 1
83 727 1
84 727 1
85 727 1
86 727 1
90 727 1
92 727 1
94 727 1
97 727 1
98 727 1
103 727 1
104 727 1
106 727 1
108 727 1
109 727 1
110 727 1
114 727 1
117 727 1
118 727 1
119 727 1
120 727 1
121 727 1
122 727 1
123 727 1
124 727 1
125 727 1
126 727 1
127 727 1
128 727 1
131 727 1
133 727 1
134 727 1
1 728 1
3 728 1
9 728 1
10 728 1
11 728 1
13 728 1
17 728 1
18 728 1
19 728 1
22 728 1
23 728 1
26 728 1
27 728 1
28 728 1
30 728 1
32 728 1
34 728 1
35 728 1
37 728 1
38 728 1
39 728 1
40 728 1
42 728 1
44 728 1
45 728 1
47 728 1
48 728 1
49 728 1
52 728 1
56 728 1
59 728 1
60 728 1
62 728 1
64 728 1
66 728 1
67 728 1
68 728 1
69 728 1
70 728 1
72 728 1
73 728 1
74 728 1
75 728 1
78 728 1
79 728 1
82 728 1
83 728 1
86 728 1
87 728 1
90 728 1
91 728 1
93 728 1
95 728 1
97 728 1
98 728 1
99 728 1
100 728 1
101 728 1
102 728 1
103 728 1
104 728 1
107 728 1
109 728 1
110 728 1
114 728 1
116 728 1
117 728 1
123 728 1
124 728 1
125 728 1
127 728 1
128 728 1
129 728 1
130 728 1
134 728 1
3 729 1
6 729 1
11 729 1
12 729 1
14 729 1
17 729 1
23 729 1
24 729 1
26 729 1
30 729 1
31 729 1
32 729 1
33 729 1
34 729 1
35 729 1
39 729 1
51 729 1
52 729 1
53 729 1
55 729 1
56 729 1
57 729 1
60 729 1
61 729 1
66 729 1
68 729 1
69 729 1
73 729 1
74 729 1
75 729 1
76 729 1
77 729 1
81 729 1
83 729 1
84 729 1
86 729 1
87 729 1
88 729 1
89 729 1
91 729 1
94 729 1
95 729 1
96 729 1
97 729 1
98 729 1
101 729 1
107 729 1
108 729 1
110 729 1
114 729 1
115 729 1
116 729 1
117 729 1
118 729 1
120 729 1
121 729 1
123 729 1
124 729 1
125 729 1
126 729 1
127 729 1
129 729 1
130 729 1
131 729 1
135 729 1
136 729 1
2 730 1
4 730 1
6 730 1
7 730 1
10 730 1
13 730 1
16 730 1
20 730 1
22 730 1
23 730 1
29 730 1
30 730 1
31 730 1
32 730 1
34 730 1
35 730 1
36 730 1
39 730 1
42 730 1
43 730 1
44 730 1
45 730 1
46 730 1
47 730 1
53 730 1
54 730 1
55 730 1
57 730 1
58 730 1
63 730 1
65 730 1
66 730 1
68 730 1
71 730 1
72 730 1
73 730 1
74 730 1
75 730 1
79 730 1
84 730 1
85 730 1
86 730 1
87 730 1
88 730 1
89 730 1
90 730 1
91 730 1
94 730 1
96 730 1
97 730 1
99 730 1
100 730 1
101 730 1
105 730 1
108 730 1
109 730 1
112 730 1
114 730 1
115 730 1
116 730 1
118 730 1
120 730 1
121 730 1
122 730 1
126 730 1
128 730 1
130 730 1
131 730 1
133 730 1
1 731 1
2 731 1
6 731 1
7 731 1
8 731 1
10 731 1
11 731 1
12 731 1
14 731 1
15 731 1
18 731 1
19 731 1
20 731 1
21 731 1
23 731 1
24 731 1
26 731 1
27 731 1
28 731 1
31 731 1
34 731 1
35 731 1
39 731 1
40 731 1
41 731 1
43 731 1
44 731 1
45 731 1
46 731 1
47 731 1
48 731 1
49 731 1
53 731 1
54 731 1
57 731 1
59 731 1
62 731 1
63 731 1
65 731 1
68 731 1
69 731 1
70 731 1
74 731 1
75 731 1
76 731 1
81 731 1
85 731 1
87 731 1
89 731 1
90 731 1
92 731 1
93 731 1
98 731 1
99 731 1
100 731 1
101 731 1
102 731 1
103 731 1
104 731 1
108 731 1
110 731 1
111 731 1
112 731 1
114 731 1
115 731 1
116 731 1
120 731 1
122 731 1
123 731 1
126 731 1
129 731 1
132 731 1
135 731 1
1 732 1
3 732 1
6 732 1
7 732 1
8 732 1
9 732 1
10 732 1
11 732 1
13 732 1
14 732 1
16 732 1
17 732 1
19 732 1
21 732 1
22 732 1
23 732 1
25 732 1
27 732 1
30 732 1
32 732 1
33 732 1
34 732 1
36 732 1
37 732 1
39 732 1
41 732 1
42 732 1
44 732 1
45 732 1
46 732 1
48 732 1
49 732 1
50 732 1
53 732 1
54 732 1
56 732 1
59 732 1
62 732 1
63 732 1
66 732 1
67 732 1
70 732 1
71 732 1
74 732 1
75 732 1
78 732 1
79 732 1
80 732 1
83 732 1
85 732 1
87 732 1
88 732 1
89 732 1
91 732 1
92 732 1
94 732 1
96 732 1
97 732 1
101 732 1
107 732 1
110 732 1
111 732 1
112 732 1
113 732 1
120 732 1
121 732 1
123 732 1
124 732 1
125 732 1
131 732 1
132 732 1
133 732 1
135 732 1
136 732 1
3 733 1
6 733 1
7 733 1
8 733 1
12 733 1
13 733 1
14 733 1
18 733 1
23 733 1
25 733 1
26 733 1
27 733 1
30 733 1
31 733 1
33 733 1
40 733 1
42 733 1
43 733 1
46 733 1
47 733 1
49 733 1
50 733 1
51 733 1
53 733 1
54 733 1
55 733 1
57 733 1
58 733 1
59 733 1
60 733 1
63 733 1
64 733 1
65 733 1
68 733 1
72 733 1
73 733 1
74 733 1
75 733 1
80 733 1
85 733 1
86 733 1
89 733 1
90 733 1
91 733 1
92 733 1
95 733 1
98 733 1
99 733 1
102 733 1
108 733 1
113 733 1
117 733 1
120 733 1
123 733 1
124 733 1
125 733 1
127 733 1
128 733 1
132 733 1
133 733 1
2 734 1
7 734 1
8 734 1
11 734 1
12 734 1
13 734 1
16 734 1
17 734 1
22 734 1
24 734 1
29 734 1
30 734 1
32 734 1
33 734 1
35 734 1
37 734 1
41 734 1
43 734 1
44 734 1
45 734 1
46 734 1
48 734 1
49 734 1
51 734 1
52 734 1
53 734 1
57 734 1
62 734 1
64 734 1
65 734 1
71 734 1
72 734 1
74 734 1
76 734 1
78 734 1
80 734 1
81 734 1
83 734 1
85 734 1
87 734 1
88 734 1
97 734 1
98 734 1
99 734 1
102 734 1
103 734 1
105 734 1
109 734 1
110 734 1
116 734 1
117 734 1
118 734 1
120 734 1
121 734 1
122 734 1
123 734 1
126 734 1
128 734 1
129 734 1
132 734 1
133 734 1
135 734 1
136 734 1
1 735 1
2 735 1
8 735 1
9 735 1
12 735 1
14 735 1
15 735 1
16 735 1
18 735 1
21 735 1
22 735 1
24 735 1
26 735 1
27 735 1
28 735 1
30 735 1
31 735 1
36 735 1
38 735 1
39 735 1
40 735 1
42 735 1
43 735 1
46 735 1
48 735 1
49 735 1
50 735 1
52 735 1
53 735 1
54 735 1
55 735 1
57 735 1
58 735 1
60 735 1
62 735 1
65 735 1
72 735 1
78 735 1
79 735 1
82 735 1
86 735 1
87 735 1
88 735 1
89 735 1
92 735 1
93 735 1
95 735 1
96 735 1
97 735 1
98 735 1
102 735 1
103 735 1
104 735 1
105 735 1
107 735 1
108 735 1
110 735 1
113 735 1
114 735 1
115 735 1
116 735 1
117 735 1
119 735 1
120 735 1
121 735 1
122 735 1
124 735 1
125 735 1
126 735 1
128 735 1
130 735 1
131 735 1
136 735 1
1 736 1
3 736 1
6 736 1
11 736 1
13 736 1
14 736 1
15 736 1
16 736 1
17 736 1
18 736 1
23 736 1
25 736 1
26 736 1
27 736 1
29 736 1
30 736 1
32 736 1
33 736 1
34 736 1
36 736 1
37 736 1
38 736 1
39 736 1
43 736 1
45 736 1
47 736 1
50 736 1
53 736 1
55 736 1
56 736 1
58 736 1
59 736 1
60 736 1
61 736 1
62 736 1
64 736 1
65 736 1
73 736 1
76 736 1
77 736 1
78 736 1
82 736 1
84 736 1
85 736 1
87 736 1
88 736 1
89 736 1
92 736 1
93 736 1
94 736 1
96 736 1
98 736 1
99 736 1
101 736 1
103 736 1
105 736 1
107 736 1
108 736 1
111 736 1
112 736 1
117 736 1
118 736 1
119 736 1
121 736 1
123 736 1
124 736 1
126 736 1
130 736 1
132 736 1
133 736 1
134 736 1
135 736 1
3 737 1
7 737 1
9 737 1
11 737 1
12 737 1
13 737 1
15 737 1
17 737 1
18 737 1
21 737 1
23 737 1
27 737 1
28 737 1
30 737 1
31 737 1
32 737 1
33 737 1
37 737 1
38 737 1
39 737 1
41 737 1
44 737 1
45 737 1
46 737 1
48 737 1
51 737 1
57 737 1
59 737 1
61 737 1
63 737 1
65 737 1
70 737 1
71 737 1
77 737 1
81 737 1
82 737 1
85 737 1
89 737 1
90 737 1
93 737 1
96 737 1
97 737 1
98 737 1
99 737 1
103 737 1
105 737 1
108 737 1
109 737 1
111 737 1
112 737 1
113 737 1
114 737 1
116 737 1
120 737 1
122 737 1
124 737 1
126 737 1
128 737 1
129 737 1
130 737 1
132 737 1
135 737 1
2 738 1
4 738 1
8 738 1
10 738 1
12 738 1
14 738 1
15 738 1
16 738 1
17 738 1
20 738 1
22 738 1
25 738 1
27 738 1
29 738 1
30 738 1
31 738 1
33 738 1
34 738 1
35 738 1
37 738 1
38 738 1
43 738 1
44 738 1
45 738 1
46 738 1
49 738 1
50 738 1
53 738 1
57 738 1
62 738 1
63 738 1
64 738 1
67 738 1
70 738 1
73 738 1
77 738 1
79 738 1
80 738 1
83 738 1
87 738 1
88 738 1
91 738 1
92 738 1
94 738 1
95 738 1
98 738 1
100 738 1
101 738 1
104 738 1
106 738 1
107 738 1
108 738 1
109 738 1
111 738 1
117 738 1
118 738 1
119 738 1
122 738 1
131 738 1
1 739 1
2 739 1
10 739 1
13 739 1
15 739 1
16 739 1
18 739 1
19 739 1
21 739 1
22 739 1
23 739 1
26 739 1
27 739 1
28 739 1
33 739 1
36 739 1
38 739 1
41 739 1
42 739 1
45 739 1
47 739 1
50 739 1
52 739 1
55 739 1
58 739 1
59 739 1
60 739 1
63 739 1
71 739 1
73 739 1
75 739 1
78 739 1
83 739 1
86 739 1
88 739 1
89 739 1
90 739 1
91 739 1
92 739 1
95 739 1
99 739 1
101 739 1
102 739 1
103 739 1
105 739 1
106 739 1
107 739 1
109 739 1
110 739 1
113 739 1
114 739 1
116 739 1
117 739 1
119 739 1
120 739 1
121 739 1
123 739 1
124 739 1
125 739 1
126 739 1
127 739 1
128 739 1
132 739 1
136 739 1
1 740 1
6 740 1
9 740 1
12 740 1
14 740 1
17 740 1
18 740 1
21 740 1
22 740 1
25 740 1
26 740 1
27 740 1
32 740 1
33 740 1
35 740 1
36 740 1
38 740 1
41 740 1
42 740 1
43 740 1
44 740 1
46 740 1
47 740 1
48 740 1
49 740 1
52 740 1
54 740 1
55 740 1
58 740 1
60 740 1
61 740 1
63 740 1
64 740 1
65 740 1
67 740 1
72 740 1
74 740 1
78 740 1
80 740 1
84 740 1
87 740 1
88 740 1
91 740 1
93 740 1
94 740 1
95 740 1
96 740 1
99 740 1
100 740 1
102 740 1
104 740 1
108 740 1
110 740 1
112 740 1
113 740 1
114 740 1
116 740 1
117 740 1
119 740 1
121 740 1
122 740 1
123 740 1
125 740 1
128 740 1
129 740 1
133 740 1
134 740 1
135 740 1
2 741 1
7 741 1
9 741 1
10 741 1
11 741 1
13 741 1
14 741 1
16 741 1
17 741 1
21 741 1
22 741 1
23 741 1
25 741 1
26 741 1
27 741 1
29 741 1
30 741 1
31 741 1
32 741 1
33 741 1
34 741 1
40 741 1
41 741 1
47 741 1
54 741 1
56 741 1
58 741 1
59 741 1
61 741 1
63 741 1
67 741 1
72 741 1
75 741 1
82 741 1
83 741 1
88 741 1
89 741 1
90 741 1
93 741 1
94 741 1
95 741 1
99 741 1
100 741 1
105 741 1
106 741 1
107 741 1
110 741 1
111 741 1
112 741 1
113 741 1
114 741 1
115 741 1
116 741 1
119 741 1
120 741 1
121 741 1
123 741 1
125 741 1
130 741 1
131 741 1
132 741 1
133 741 1
134 741 1
1 742 1
6 742 1
8 742 1
9 742 1
10 742 1
12 742 1
13 742 1
15 742 1
18 742 1
20 742 1
22 742 1
24 742 1
25 742 1
26 742 1
28 742 1
29 742 1
30 742 1
31 742 1
32 742 1
33 742 1
34 742 1
35 742 1
38 742 1
41 742 1
43 742 1
45 742 1
48 742 1
49 742 1
56 742 1
57 742 1
59 742 1
60 742 1
61 742 1
65 742 1
69 742 1
73 742 1
74 742 1
76 742 1
77 742 1
78 742 1
80 742 1
84 742 1
85 742 1
88 742 1
90 742 1
91 742 1
92 742 1
94 742 1
95 742 1
96 742 1
98 742 1
99 742 1
100 742 1
107 742 1
109 742 1
112 742 1
114 742 1
115 742 1
117 742 1
119 742 1
121 742 1
122 742 1
123 742 1
124 742 1
125 742 1
127 742 1
128 742 1
130 742 1
132 742 1
133 742 1
2 743 1
3 743 1
4 743 1
7 743 1
10 743 1
12 743 1
16 743 1
17 743 1
19 743 1
20 743 1
21 743 1
22 743 1
26 743 1
28 743 1
31 743 1
32 743 1
38 743 1
40 743 1
42 743 1
46 743 1
48 743 1
50 743 1
51 743 1
55 743 1
56 743 1
57 743 1
58 743 1
59 743 1
60 743 1
61 743 1
64 743 1
66 743 1
67 743 1
70 743 1
82 743 1
85 743 1
88 743 1
90 743 1
92 743 1
94 743 1
100 743 1
103 743 1
104 743 1
107 743 1
111 743 1
112 743 1
113 743 1
114 743 1
115 743 1
117 743 1
118 743 1
119 743 1
121 743 1
122 743 1
123 743 1
124 743 1
125 743 1
126 743 1
127 743 1
129 743 1
130 743 1
132 743 1
133 743 1
134 743 1
136 743 1
1 744 1
2 744 1
3 744 1
6 744 1
8 744 1
9 744 1
16 744 1
18 744 1
19 744 1
20 744 1
21 744 1
25 744 1
26 744 1
27 744 1
30 744 1
31 744 1
32 744 1
34 744 1
36 744 1
37 744 1
41 744 1
43 744 1
44 744 1
45 744 1
46 744 1
48 744 1
50 744 1
51 744 1
52 744 1
53 744 1
55 744 1
59 744 1
60 744 1
61 744 1
64 744 1
68 744 1
76 744 1
77 744 1
83 744 1
84 744 1
90 744 1
93 744 1
95 744 1
97 744 1
100 744 1
102 744 1
106 744 1
108 744 1
110 744 1
114 744 1
117 744 1
118 744 1
119 744 1
120 744 1
122 744 1
126 744 1
128 744 1
129 744 1
131 744 1
132 744 1
136 744 1
1 745 1
7 745 1
9 745 1
10 745 1
14 745 1
17 745 1
18 745 1
19 745 1
20 745 1
22 745 1
23 745 1
25 745 1
27 745 1
31 745 1
32 745 1
33 745 1
34 745 1
35 745 1
37 745 1
38 745 1
41 745 1
45 745 1
47 745 1
48 745 1
49 745 1
50 745 1
51 745 1
52 745 1
53 745 1
54 745 1
56 745 1
60 745 1
64 745 1
69 745 1
70 745 1
71 745 1
72 745 1
73 745 1
80 745 1
81 745 1
82 745 1
83 745 1
84 745 1
85 745 1
87 745 1
88 745 1
95 745 1
98 745 1
106 745 1
107 745 1
108 745 1
109 745 1
110 745 1
111 745 1
112 745 1
113 745 1
114 745 1
115 745 1
117 745 1
118 745 1
120 745 1
121 745 1
122 745 1
123 745 1
124 745 1
125 745 1
127 745 1
128 745 1
129 745 1
131 745 1
132 745 1
133 745 1
134 745 1
135 745 1
4 746 1
8 746 1
9 746 1
13 746 1
15 746 1
17 746 1
19 746 1
20 746 1
21 746 1
22 746 1
24 746 1
26 746 1
30 746 1
31 746 1
33 746 1
34 746 1
35 746 1
40 746 1
42 746 1
43 746 1
45 746 1
46 746 1
48 746 1
49 746 1
51 746 1
53 746 1
54 746 1
56 746 1
59 746 1
61 746 1
62 746 1
65 746 1
66 746 1
67 746 1
69 746 1
72 746 1
73 746 1
77 746 1
79 746 1
80 746 1
81 746 1
83 746 1
84 746 1
85 746 1
86 746 1
89 746 1
91 746 1
93 746 1
94 746 1
95 746 1
97 746 1
99 746 1
100 746 1
102 746 1
103 746 1
104 746 1
105 746 1
107 746 1
108 746 1
111 746 1
113 746 1
114 746 1
115 746 1
116 746 1
117 746 1
120 746 1
121 746 1
123 746 1
128 746 1
130 746 1
131 746 1
135 746 1
136 746 1
2 747 1
4 747 1
6 747 1
9 747 1
10 747 1
12 747 1
19 747 1
22 747 1
24 747 1
25 747 1
26 747 1
27 747 1
32 747 1
36 747 1
39 747 1
41 747 1
42 747 1
43 747 1
44 747 1
46 747 1
47 747 1
50 747 1
51 747 1
54 747 1
55 747 1
57 747 1
60 747 1
62 747 1
63 747 1
66 747 1
67 747 1
68 747 1
69 747 1
70 747 1
71 747 1
73 747 1
75 747 1
76 747 1
78 747 1
79 747 1
84 747 1
90 747 1
97 747 1
102 747 1
103 747 1
104 747 1
106 747 1
107 747 1
112 747 1
113 747 1
114 747 1
115 747 1
116 747 1
117 747 1
119 747 1
121 747 1
123 747 1
127 747 1
128 747 1
129 747 1
132 747 1
134 747 1
135 747 1
1 748 1
4 748 1
6 748 1
7 748 1
9 748 1
15 748 1
16 748 1
21 748 1
23 748 1
24 748 1
26 748 1
31 748 1
32 748 1
33 748 1
34 748 1
38 748 1
40 748 1
43 748 1
44 748 1
45 748 1
46 748 1
48 748 1
49 748 1
50 748 1
51 748 1
53 748 1
55 748 1
56 748 1
57 748 1
66 748 1
67 748 1
68 748 1
69 748 1
70 748 1
72 748 1
74 748 1
75 748 1
82 748 1
85 748 1
86 748 1
87 748 1
91 748 1
94 748 1
95 748 1
101 748 1
105 748 1
107 748 1
109 748 1
111 748 1
115 748 1
117 748 1
118 748 1
121 748 1
123 748 1
126 748 1
127 748 1
128 748 1
129 748 1
131 748 1
134 748 1
135 748 1
136 748 1
2 749 1
4 749 1
7 749 1
8 749 1
9 749 1
10 749 1
11 749 1
18 749 1
20 749 1
21 749 1
24 749 1
25 749 1
27 749 1
29 749 1
31 749 1
32 749 1
37 749 1
38 749 1
39 749 1
42 749 1
47 749 1
48 749 1
49 749 1
51 749 1
53 749 1
55 749 1
59 749 1
62 749 1
66 749 1
68 749 1
70 749 1
72 749 1
74 749 1
75 749 1
77 749 1
78 749 1
81 749 1
82 749 1
84 749 1
85 749 1
86 749 1
87 749 1
88 749 1
89 749 1
90 749 1
92 749 1
102 749 1
103 749 1
108 749 1
109 749 1
111 749 1
113 749 1
114 749 1
115 749 1
116 749 1
117 749 1
119 749 1
122 749 1
123 749 1
124 749 1
126 749 1
129 749 1
131 749 1
134 749 1
135 749 1
1 750 1
3 750 1
8 750 1
9 750 1
10 750 1
11 750 1
15 750 1
17 750 1
19 750 1
23 750 1
24 750 1
25 750 1
28 750 1
30 750 1
31 750 1
33 750 1
39 750 1
40 750 1
41 750 1
42 750 1
43 750 1
45 750 1
46 750 1
54 750 1
56 750 1
60 750 1
62 750 1
64 750 1
68 750 1
70 750 1
71 750 1
73 750 1
74 750 1
76 750 1
77 750 1
79 750 1
80 750 1
83 750 1
84 750 1
85 750 1
86 750 1
88 750 1
89 750 1
91 750 1
93 750 1
95 750 1
106 750 1
107 750 1
110 750 1
111 750 1
112 750 1
113 750 1
114 750 1
116 750 1
117 750 1
120 750 1
121 750 1
124 750 1
126 750 1
128 750 1
130 750 1
131 750 1
133 750 1
134 750 1
135 750 1
136 750 1
2 842 1
3 842 1
4 842 1
9 842 1
11 842 1
12 842 1
13 842 1
14 842 1
16 842 1
17 842 1
18 842 1
21 842 1
23 842 1
25 842 1
27 842 1
30 842 1
33 842 1
34 842 1
36 842 1
37 842 1
38 842 1
39 842 1
40 842 1
41 842 1
42 842 1
48 842 1
50 842 1
52 842 1
53 842 1
54 842 1
57 842 1
61 842 1
65 842 1
66 842 1
67 842 1
72 842 1
74 842 1
77 842 1
79 842 1
81 842 1
83 842 1
85 842 1
87 842 1
89 842 1
90 842 1
91 842 1
93 842 1
94 842 1
95 842 1
96 842 1
97 842 1
100 842 1
102 842 1
104 842 1
105 842 1
106 842 1
114 842 1
115 842 1
121 842 1
122 842 1
123 842 1
124 842 1
128 842 1
130 842 1
132 842 1
135 842 1
1 843 1
2 843 1
4 843 1
37 843 1
40 843 1
41 843 1
44 843 1
47 843 1
49 843 1
50 843 1
53 843 1
55 843 1
57 843 1
59 843 1
60 843 1
61 843 1
63 843 1
65 843 1
66 843 1
67 843 1
68 843 1
74 843 1
75 843 1
77 843 1
80 843 1
83 843 1
84 843 1
86 843 1
91 843 1
93 843 1
101 843 1
105 843 1
106 843 1
112 843 1
116 843 1
118 843 1
120 843 1
123 843 1
124 843 1
125 843 1
126 843 1
127 843 1
128 843 1
132 843 1
133 843 1
134 843 1
1 844 1
2 844 1
3 844 1
4 844 1
9 844 1
11 844 1
12 844 1
13 844 1
14 844 1
16 844 1
17 844 1
18 844 1
21 844 1
23 844 1
25 844 1
27 844 1
30 844 1
33 844 1
34 844 1
38 844 1
39 844 1
41 844 1
42 844 1
43 844 1
45 844 1
46 844 1
47 844 1
49 844 1
50 844 1
51 844 1
52 844 1
55 844 1
61 844 1
64 844 1
65 844 1
66 844 1
68 844 1
69 844 1
71 844 1
72 844 1
73 844 1
77 844 1
79 844 1
83 844 1
86 844 1
89 844 1
90 844 1
92 844 1
93 844 1
95 844 1
96 844 1
97 844 1
98 844 1
100 844 1
103 844 1
104 844 1
105 844 1
106 844 1
108 844 1
109 844 1
114 844 1
115 844 1
117 844 1
119 844 1
121 844 1
125 844 1
126 844 1
127 844 1
130 844 1
133 844 1
134 844 1
1 845 1
2 845 1
4 845 1
37 845 1
42 845 1
45 845 1
46 845 1
47 845 1
48 845 1
50 845 1
52 845 1
55 845 1
56 845 1
57 845 1
61 845 1
63 845 1
64 845 1
65 845 1
67 845 1
68 845 1
69 845 1
70 845 1
71 845 1
72 845 1
74 845 1
75 845 1
76 845 1
77 845 1
79 845 1
84 845 1
85 845 1
86 845 1
87 845 1
89 845 1
90 845 1
91 845 1
99 845 1
103 845 1
104 845 1
105 845 1
108 845 1
110 845 1
111 845 1
112 845 1
113 845 1
121 845 1
122 845 1
123 845 1
125 845 1
126 845 1
128 845 1
129 845 1
132 845 1
133 845 1
1 846 1
2 846 1
4 846 1
9 846 1
11 846 1
12 846 1
13 846 1
14 846 1
16 846 1
17 846 1
18 846 1
21 846 1
23 846 1
25 846 1
27 846 1
30 846 1
33 846 1
40 846 1
44 846 1
45 846 1
46 846 1
47 846 1
51 846 1
53 846 1
57 846 1
59 846 1
60 846 1
61 846 1
62 846 1
64 846 1
65 846 1
67 846 1
69 846 1
70 846 1
71 846 1
72 846 1
73 846 1
75 846 1
76 846 1
77 846 1
78 846 1
79 846 1
81 846 1
82 846 1
86 846 1
87 846 1
88 846 1
90 846 1
95 846 1
96 846 1
98 846 1
100 846 1
101 846 1
103 846 1
105 846 1
108 846 1
110 846 1
112 846 1
113 846 1
114 846 1
117 846 1
118 846 1
119 846 1
122 846 1
123 846 1
124 846 1
125 846 1
126 846 1
129 846 1
130 846 1
131 846 1
134 846 1
135 846 1
136 846 1
1 847 1
39 847 1
46 847 1
48 847 1
49 847 1
50 847 1
51 847 1
52 847 1
54 847 1
56 847 1
59 847 1
61 847 1
64 847 1
65 847 1
69 847 1
70 847 1
71 847 1
72 847 1
73 847 1
80 847 1
85 847 1
86 847 1
88 847 1
90 847 1
91 847 1
92 847 1
95 847 1
99 847 1
102 847 1
103 847 1
104 847 1
109 847 1
110 847 1
112 847 1
113 847 1
114 847 1
115 847 1
116 847 1
118 847 1
121 847 1
124 847 1
125 847 1
126 847 1
128 847 1
129 847 1
130 847 1
131 847 1
132 847 1
133 847 1
134 847 1
135 847 1
136 847 1
2 848 1
3 848 1
4 848 1
9 848 1
11 848 1
12 848 1
13 848 1
14 848 1
16 848 1
17 848 1
18 848 1
21 848 1
23 848 1
25 848 1
27 848 1
30 848 1
33 848 1
34 848 1
36 848 1
37 848 1
38 848 1
39 848 1
42 848 1
44 848 1
45 848 1
48 848 1
49 848 1
50 848 1
51 848 1
52 848 1
59 848 1
61 848 1
62 848 1
63 848 1
69 848 1
70 848 1
74 848 1
76 848 1
77 848 1
78 848 1
79 848 1
84 848 1
85 848 1
87 848 1
89 848 1
90 848 1
98 848 1
99 848 1
100 848 1
101 848 1
103 848 1
105 848 1
106 848 1
108 848 1
110 848 1
112 848 1
114 848 1
115 848 1
119 848 1
120 848 1
122 848 1
123 848 1
124 848 1
125 848 1
127 848 1
129 848 1
131 848 1
135 848 1
136 848 1
1 849 1
2 849 1
4 849 1
34 849 1
36 849 1
40 849 1
41 849 1
44 849 1
48 849 1
50 849 1
55 849 1
56 849 1
59 849 1
60 849 1
61 849 1
63 849 1
69 849 1
70 849 1
74 849 1
76 849 1
77 849 1
79 849 1
83 849 1
84 849 1
87 849 1
90 849 1
91 849 1
92 849 1
93 849 1
94 849 1
100 849 1
101 849 1
102 849 1
103 849 1
106 849 1
109 849 1
110 849 1
111 849 1
112 849 1
114 849 1
116 849 1
118 849 1
119 849 1
121 849 1
122 849 1
123 849 1
127 849 1
128 849 1
129 849 1
130 849 1
131 849 1
136 849 1
1 850 1
2 850 1
3 850 1
4 850 1
9 850 1
11 850 1
12 850 1
13 850 1
14 850 1
16 850 1
17 850 1
18 850 1
21 850 1
23 850 1
25 850 1
27 850 1
30 850 1
33 850 1
34 850 1
37 850 1
38 850 1
39 850 1
40 850 1
41 850 1
43 850 1
44 850 1
48 850 1
52 850 1
55 850 1
56 850 1
57 850 1
58 850 1
59 850 1
61 850 1
62 850 1
64 850 1
65 850 1
69 850 1
70 850 1
71 850 1
72 850 1
73 850 1
74 850 1
75 850 1
77 850 1
78 850 1
79 850 1
80 850 1
81 850 1
82 850 1
83 850 1
85 850 1
86 850 1
87 850 1
92 850 1
93 850 1
94 850 1
95 850 1
98 850 1
99 850 1
101 850 1
102 850 1
103 850 1
104 850 1
108 850 1
111 850 1
112 850 1
113 850 1
114 850 1
119 850 1
121 850 1
122 850 1
123 850 1
124 850 1
126 850 1
127 850 1
131 850 1
132 850 1
135 850 1
136 850 1
1 851 1
2 851 1
3 851 1
34 851 1
36 851 1
40 851 1
42 851 1
43 851 1
45 851 1
46 851 1
47 851 1
52 851 1
53 851 1
55 851 1
59 851 1
60 851 1
63 851 1
64 851 1
65 851 1
69 851 1
70 851 1
72 851 1
73 851 1
75 851 1
80 851 1
81 851 1
83 851 1
84 851 1
85 851 1
86 851 1
87 851 1
88 851 1
91 851 1
93 851 1
96 851 1
97 851 1
98 851 1
99 851 1
103 851 1
106 851 1
108 851 1
110 851 1
111 851 1
115 851 1
117 851 1
118 851 1
119 851 1
123 851 1
124 851 1
125 851 1
127 851 1
128 851 1
129 851 1
130 851 1
133 851 1
134 851 1
136 851 1
1 852 1
9 852 1
11 852 1
12 852 1
13 852 1
14 852 1
16 852 1
17 852 1
18 852 1
21 852 1
23 852 1
25 852 1
27 852 1
30 852 1
33 852 1
34 852 1
36 852 1
37 852 1
38 852 1
39 852 1
40 852 1
46 852 1
47 852 1
48 852 1
53 852 1
56 852 1
57 852 1
58 852 1
60 852 1
63 852 1
64 852 1
65 852 1
67 852 1
69 852 1
70 852 1
76 852 1
77 852 1
84 852 1
85 852 1
86 852 1
90 852 1
92 852 1
93 852 1
95 852 1
98 852 1
99 852 1
100 852 1
101 852 1
109 852 1
110 852 1
112 852 1
113 852 1
116 852 1
117 852 1
119 852 1
120 852 1
121 852 1
124 852 1
125 852 1
128 852 1
130 852 1
131 852 1
132 852 1
134 852 1
136 852 1
3 853 1
4 853 1
38 853 1
40 853 1
41 853 1
43 853 1
45 853 1
46 853 1
47 853 1
52 853 1
53 853 1
54 853 1
55 853 1
56 853 1
58 853 1
61 853 1
63 853 1
64 853 1
65 853 1
67 853 1
69 853 1
71 853 1
73 853 1
74 853 1
77 853 1
78 853 1
79 853 1
82 853 1
83 853 1
84 853 1
85 853 1
88 853 1
89 853 1
90 853 1
91 853 1
96 853 1
99 853 1
100 853 1
102 853 1
103 853 1
104 853 1
107 853 1
109 853 1
112 853 1
116 853 1
117 853 1
118 853 1
119 853 1
120 853 1
121 853 1
123 853 1
124 853 1
127 853 1
130 853 1
136 853 1
3 854 1
9 854 1
11 854 1
12 854 1
13 854 1
14 854 1
16 854 1
17 854 1
18 854 1
21 854 1
23 854 1
25 854 1
27 854 1
30 854 1
33 854 1
34 854 1
36 854 1
38 854 1
41 854 1
43 854 1
44 854 1
46 854 1
49 854 1
51 854 1
53 854 1
55 854 1
56 854 1
57 854 1
58 854 1
60 854 1
61 854 1
64 854 1
65 854 1
67 854 1
70 854 1
71 854 1
73 854 1
74 854 1
76 854 1
79 854 1
81 854 1
82 854 1
84 854 1
85 854 1
86 854 1
87 854 1
88 854 1
89 854 1
90 854 1
93 854 1
94 854 1
97 854 1
98 854 1
102 854 1
103 854 1
104 854 1
108 854 1
109 854 1
110 854 1
111 854 1
112 854 1
113 854 1
114 854 1
115 854 1
116 854 1
117 854 1
119 854 1
120 854 1
122 854 1
123 854 1
125 854 1
130 854 1
134 854 1
135 854 1
136 854 1
2 855 1
4 855 1
39 855 1
42 855 1
43 855 1
46 855 1
47 855 1
48 855 1
50 855 1
53 855 1
55 855 1
56 855 1
58 855 1
59 855 1
60 855 1
61 855 1
64 855 1
66 855 1
67 855 1
69 855 1
72 855 1
73 855 1
74 855 1
83 855 1
91 855 1
95 855 1
96 855 1
98 855 1
99 855 1
101 855 1
103 855 1
104 855 1
105 855 1
106 855 1
109 855 1
110 855 1
113 855 1
114 855 1
116 855 1
117 855 1
119 855 1
120 855 1
121 855 1
125 855 1
127 855 1
132 855 1
133 855 1
1 856 1
2 856 1
4 856 1
9 856 1
11 856 1
12 856 1
13 856 1
14 856 1
16 856 1
17 856 1
18 856 1
21 856 1
23 856 1
25 856 1
27 856 1
30 856 1
33 856 1
34 856 1
36 856 1
37 856 1
38 856 1
40 856 1
41 856 1
42 856 1
43 856 1
47 856 1
49 856 1
50 856 1
52 856 1
53 856 1
54 856 1
61 856 1
62 856 1
63 856 1
68 856 1
70 856 1
71 856 1
74 856 1
77 856 1
79 856 1
81 856 1
83 856 1
85 856 1
89 856 1
90 856 1
91 856 1
93 856 1
95 856 1
96 856 1
97 856 1
98 856 1
104 856 1
106 856 1
107 856 1
108 856 1
110 856 1
112 856 1
113 856 1
115 856 1
116 856 1
117 856 1
119 856 1
123 856 1
128 856 1
129 856 1
130 856 1
132 856 1
134 856 1
1 857 1
3 857 1
4 857 1
34 857 1
36 857 1
38 857 1
41 857 1
42 857 1
44 857 1
45 857 1
47 857 1
52 857 1
54 857 1
55 857 1
57 857 1
59 857 1
60 857 1
61 857 1
62 857 1
63 857 1
65 857 1
66 857 1
69 857 1
70 857 1
73 857 1
74 857 1
75 857 1
76 857 1
77 857 1
78 857 1
80 857 1
83 857 1
84 857 1
86 857 1
89 857 1
90 857 1
91 857 1
93 857 1
96 857 1
97 857 1
98 857 1
100 857 1
101 857 1
102 857 1
103 857 1
106 857 1
107 857 1
108 857 1
115 857 1
116 857 1
119 857 1
123 857 1
125 857 1
128 857 1
131 857 1
132 857 1
134 857 1
3 858 1
9 858 1
11 858 1
12 858 1
13 858 1
14 858 1
16 858 1
17 858 1
18 858 1
21 858 1
23 858 1
25 858 1
27 858 1
30 858 1
33 858 1
34 858 1
36 858 1
37 858 1
39 858 1
40 858 1
43 858 1
46 858 1
47 858 1
49 858 1
50 858 1
52 858 1
53 858 1
59 858 1
60 858 1
63 858 1
65 858 1
68 858 1
69 858 1
71 858 1
75 858 1
76 858 1
77 858 1
79 858 1
80 858 1
83 858 1
86 858 1
88 858 1
89 858 1
90 858 1
92 858 1
95 858 1
98 858 1
99 858 1
102 858 1
104 858 1
107 858 1
109 858 1
112 858 1
113 858 1
115 858 1
116 858 1
119 858 1
121 858 1
122 858 1
124 858 1
125 858 1
126 858 1
128 858 1
129 858 1
134 858 1
135 858 1
136 858 1
2 859 1
4 859 1
34 859 1
37 859 1
40 859 1
42 859 1
43 859 1
44 859 1
45 859 1
46 859 1
47 859 1
48 859 1
53 859 1
55 859 1
58 859 1
60 859 1
62 859 1
63 859 1
65 859 1
67 859 1
70 859 1
71 859 1
73 859 1
77 859 1
78 859 1
79 859 1
80 859 1
81 859 1
86 859 1
89 859 1
90 859 1
92 859 1
93 859 1
94 859 1
95 859 1
97 859 1
101 859 1
102 859 1
107 859 1
110 859 1
114 859 1
115 859 1
116 859 1
119 859 1
122 859 1
125 859 1
129 859 1
131 859 1
134 859 1
135 859 1
1 860 1
2 860 1
9 860 1
11 860 1
12 860 1
13 860 1
14 860 1
16 860 1
17 860 1
18 860 1
21 860 1
23 860 1
25 860 1
27 860 1
30 860 1
33 860 1
36 860 1
37 860 1
40 860 1
42 860 1
43 860 1
46 860 1
47 860 1
48 860 1
51 860 1
53 860 1
54 860 1
57 860 1
61 860 1
62 860 1
64 860 1
66 860 1
67 860 1
70 860 1
73 860 1
74 860 1
77 860 1
82 860 1
83 860 1
85 860 1
88 860 1
89 860 1
91 860 1
92 860 1
93 860 1
95 860 1
96 860 1
102 860 1
107 860 1
109 860 1
111 860 1
113 860 1
114 860 1
115 860 1
119 860 1
120 860 1
121 860 1
122 860 1
123 860 1
124 860 1
125 860 1
127 860 1
131 860 1
1 861 1
4 861 1
34 861 1
38 861 1
39 861 1
40 861 1
44 861 1
45 861 1
46 861 1
49 861 1
50 861 1
51 861 1
52 861 1
53 861 1
56 861 1
58 861 1
62 861 1
63 861 1
65 861 1
66 861 1
67 861 1
68 861 1
69 861 1
70 861 1
72 861 1
74 861 1
75 861 1
76 861 1
79 861 1
80 861 1
82 861 1
83 861 1
86 861 1
89 861 1
90 861 1
91 861 1
95 861 1
96 861 1
97 861 1
98 861 1
99 861 1
100 861 1
101 861 1
102 861 1
105 861 1
107 861 1
109 861 1
113 861 1
114 861 1
115 861 1
116 861 1
117 861 1
122 861 1
123 861 1
124 861 1
128 861 1
130 861 1
132 861 1
133 861 1
135 861 1
2 862 1
9 862 1
11 862 1
12 862 1
13 862 1
14 862 1
16 862 1
17 862 1
18 862 1
21 862 1
23 862 1
25 862 1
27 862 1
30 862 1
33 862 1
38 862 1
39 862 1
44 862 1
45 862 1
47 862 1
48 862 1
49 862 1
50 862 1
52 862 1
53 862 1
54 862 1
57 862 1
58 862 1
60 862 1
68 862 1
71 862 1
72 862 1
75 862 1
78 862 1
79 862 1
80 862 1
82 862 1
83 862 1
87 862 1
88 862 1
89 862 1
90 862 1
91 862 1
93 862 1
94 862 1
97 862 1
99 862 1
103 862 1
104 862 1
105 862 1
107 862 1
108 862 1
114 862 1
117 862 1
121 862 1
122 862 1
124 862 1
127 862 1
130 862 1
132 862 1
133 862 1
134 862 1
136 862 1
1 863 1
3 863 1
36 863 1
38 863 1
43 863 1
45 863 1
47 863 1
49 863 1
51 863 1
52 863 1
53 863 1
55 863 1
56 863 1
59 863 1
61 863 1
63 863 1
66 863 1
67 863 1
69 863 1
71 863 1
73 863 1
75 863 1
78 863 1
79 863 1
81 863 1
85 863 1
86 863 1
91 863 1
93 863 1
97 863 1
99 863 1
101 863 1
102 863 1
107 863 1
109 863 1
113 863 1
114 863 1
117 863 1
118 863 1
119 863 1
121 863 1
123 863 1
124 863 1
128 863 1
133 863 1
134 863 1
135 863 1
136 863 1
3 864 1
9 864 1
11 864 1
12 864 1
13 864 1
14 864 1
16 864 1
17 864 1
18 864 1
21 864 1
23 864 1
25 864 1
27 864 1
30 864 1
33 864 1
36 864 1
38 864 1
39 864 1
40 864 1
43 864 1
47 864 1
50 864 1
51 864 1
52 864 1
56 864 1
57 864 1
59 864 1
60 864 1
61 864 1
62 864 1
65 864 1
67 864 1
68 864 1
77 864 1
78 864 1
80 864 1
81 864 1
82 864 1
85 864 1
87 864 1
89 864 1
90 864 1
92 864 1
93 864 1
95 864 1
99 864 1
100 864 1
101 864 1
102 864 1
103 864 1
104 864 1
108 864 1
109 864 1
110 864 1
112 864 1
117 864 1
119 864 1
121 864 1
122 864 1
125 864 1
128 864 1
129 864 1
130 864 1
135 864 1
2 865 1
3 865 1
34 865 1
37 865 1
42 865 1
45 865 1
50 865 1
51 865 1
53 865 1
54 865 1
55 865 1
56 865 1
57 865 1
60 865 1
63 865 1
64 865 1
65 865 1
66 865 1
67 865 1
69 865 1
71 865 1
74 865 1
75 865 1
76 865 1
78 865 1
80 865 1
81 865 1
82 865 1
83 865 1
84 865 1
85 865 1
86 865 1
90 865 1
98 865 1
99 865 1
100 865 1
102 865 1
103 865 1
104 865 1
105 865 1
106 865 1
109 865 1
118 865 1
120 865 1
121 865 1
123 865 1
124 865 1
126 865 1
127 865 1
131 865 1
134 865 1
135 865 1
136 865 1
1 866 1
3 866 1
4 866 1
9 866 1
11 866 1
12 866 1
13 866 1
14 866 1
16 866 1
17 866 1
18 866 1
21 866 1
23 866 1
25 866 1
27 866 1
30 866 1
33 866 1
36 866 1
37 866 1
38 866 1
40 866 1
43 866 1
44 866 1
45 866 1
46 866 1
47 866 1
49 866 1
52 866 1
53 866 1
55 866 1
58 866 1
61 866 1
62 866 1
63 866 1
65 866 1
68 866 1
70 866 1
71 866 1
72 866 1
73 866 1
75 866 1
76 866 1
86 866 1
87 866 1
89 866 1
90 866 1
91 866 1
93 866 1
100 866 1
101 866 1
103 866 1
104 866 1
105 866 1
106 866 1
107 866 1
108 866 1
109 866 1
117 866 1
118 866 1
120 866 1
123 866 1
125 866 1
126 866 1
128 866 1
129 866 1
132 866 1
136 866 1
2 867 1
4 867 1
38 867 1
39 867 1
40 867 1
41 867 1
43 867 1
44 867 1
47 867 1
49 867 1
50 867 1
51 867 1
54 867 1
55 867 1
56 867 1
57 867 1
60 867 1
62 867 1
66 867 1
71 867 1
72 867 1
73 867 1
76 867 1
77 867 1
78 867 1
79 867 1
80 867 1
82 867 1
84 867 1
85 867 1
86 867 1
87 867 1
90 867 1
93 867 1
98 867 1
99 867 1
101 867 1
102 867 1
104 867 1
105 867 1
107 867 1
111 867 1
113 867 1
114 867 1
116 867 1
119 867 1
122 867 1
124 867 1
125 867 1
126 867 1
131 867 1
134 867 1
1 868 1
2 868 1
3 868 1
9 868 1
11 868 1
12 868 1
13 868 1
14 868 1
16 868 1
17 868 1
18 868 1
21 868 1
23 868 1
25 868 1
27 868 1
30 868 1
33 868 1
34 868 1
37 868 1
39 868 1
41 868 1
42 868 1
44 868 1
45 868 1
48 868 1
49 868 1
50 868 1
53 868 1
55 868 1
56 868 1
58 868 1
61 868 1
62 868 1
63 868 1
64 868 1
65 868 1
66 868 1
67 868 1
68 868 1
69 868 1
73 868 1
74 868 1
75 868 1
76 868 1
79 868 1
82 868 1
85 868 1
86 868 1
90 868 1
91 868 1
92 868 1
93 868 1
98 868 1
100 868 1
102 868 1
103 868 1
105 868 1
107 868 1
109 868 1
110 868 1
111 868 1
113 868 1
116 868 1
119 868 1
120 868 1
121 868 1
122 868 1
124 868 1
125 868 1
126 868 1
127 868 1
128 868 1
135 868 1
136 868 1
1 869 1
2 869 1
3 869 1
34 869 1
37 869 1
39 869 1
43 869 1
46 869 1
47 869 1
49 869 1
50 869 1
51 869 1
53 869 1
54 869 1
57 869 1
61 869 1
63 869 1
67 869 1
68 869 1
69 869 1
72 869 1
76 869 1
78 869 1
79 869 1
83 869 1
84 869 1
86 869 1
88 869 1
89 869 1
90 869 1
91 869 1
94 869 1
96 869 1
97 869 1
99 869 1
100 869 1
101 869 1
102 869 1
104 869 1
105 869 1
106 869 1
108 869 1
109 869 1
110 869 1
112 869 1
113 869 1
118 869 1
128 869 1
132 869 1
133 869 1
134 869 1
135 869 1
136 869 1
1 870 1
9 870 1
11 870 1
12 870 1
13 870 1
14 870 1
16 870 1
17 870 1
18 870 1
21 870 1
23 870 1
25 870 1
27 870 1
30 870 1
33 870 1
34 870 1
39 870 1
40 870 1
46 870 1
47 870 1
49 870 1
50 870 1
54 870 1
56 870 1
57 870 1
61 870 1
63 870 1
64 870 1
65 870 1
69 870 1
72 870 1
74 870 1
75 870 1
76 870 1
77 870 1
78 870 1
79 870 1
81 870 1
82 870 1
83 870 1
84 870 1
86 870 1
87 870 1
88 870 1
89 870 1
91 870 1
93 870 1
94 870 1
97 870 1
98 870 1
106 870 1
109 870 1
110 870 1
111 870 1
113 870 1
114 870 1
118 870 1
121 870 1
122 870 1
123 870 1
124 870 1
126 870 1
130 870 1
134 870 1
136 870 1
3 872 1
4 872 1
9 872 1
11 872 1
12 872 1
13 872 1
14 872 1
16 872 1
17 872 1
18 872 1
21 872 1
23 872 1
25 872 1
27 872 1
30 872 1
33 872 1
34 872 1
39 872 1
41 872 1
46 872 1
49 872 1
51 872 1
52 872 1
53 872 1
57 872 1
59 872 1
62 872 1
64 872 1
65 872 1
66 872 1
68 872 1
72 872 1
73 872 1
75 872 1
76 872 1
79 872 1
80 872 1
81 872 1
85 872 1
87 872 1
89 872 1
92 872 1
93 872 1
95 872 1
103 872 1
105 872 1
107 872 1
109 872 1
111 872 1
114 872 1
115 872 1
117 872 1
120 872 1
122 872 1
123 872 1
127 872 1
129 872 1
134 872 1
136 872 1
4 873 1
36 873 1
37 873 1
40 873 1
44 873 1
46 873 1
48 873 1
49 873 1
53 873 1
56 873 1
57 873 1
61 873 1
63 873 1
65 873 1
66 873 1
67 873 1
71 873 1
72 873 1
74 873 1
75 873 1
76 873 1
81 873 1
84 873 1
85 873 1
86 873 1
87 873 1
92 873 1
95 873 1
97 873 1
98 873 1
100 873 1
102 873 1
107 873 1
108 873 1
109 873 1
111 873 1
114 873 1
115 873 1
116 873 1
117 873 1
118 873 1
119 873 1
121 873 1
122 873 1
123 873 1
124 873 1
126 873 1
127 873 1
130 873 1
131 873 1
133 873 1
135 873 1
4 874 1
9 874 1
11 874 1
12 874 1
13 874 1
14 874 1
16 874 1
17 874 1
18 874 1
21 874 1
23 874 1
25 874 1
27 874 1
30 874 1
33 874 1
37 874 1
38 874 1
45 874 1
46 874 1
53 874 1
56 874 1
57 874 1
58 874 1
62 874 1
64 874 1
66 874 1
69 874 1
70 874 1
71 874 1
72 874 1
73 874 1
74 874 1
76 874 1
78 874 1
80 874 1
81 874 1
83 874 1
85 874 1
86 874 1
87 874 1
91 874 1
92 874 1
93 874 1
97 874 1
99 874 1
100 874 1
102 874 1
106 874 1
107 874 1
108 874 1
111 874 1
114 874 1
116 874 1
117 874 1
119 874 1
120 874 1
122 874 1
124 874 1
126 874 1
127 874 1
128 874 1
130 874 1
135 874 1
2 875 1
4 875 1
36 875 1
38 875 1
39 875 1
43 875 1
44 875 1
46 875 1
47 875 1
51 875 1
52 875 1
53 875 1
55 875 1
56 875 1
57 875 1
58 875 1
61 875 1
64 875 1
69 875 1
72 875 1
73 875 1
75 875 1
78 875 1
80 875 1
81 875 1
82 875 1
84 875 1
85 875 1
86 875 1
88 875 1
91 875 1
92 875 1
94 875 1
95 875 1
98 875 1
100 875 1
103 875 1
104 875 1
105 875 1
106 875 1
108 875 1
112 875 1
113 875 1
115 875 1
117 875 1
118 875 1
121 875 1
122 875 1
124 875 1
125 875 1
128 875 1
129 875 1
130 875 1
132 875 1
133 875 1
134 875 1
136 875 1
1 876 1
4 876 1
9 876 1
11 876 1
12 876 1
13 876 1
14 876 1
16 876 1
17 876 1
18 876 1
21 876 1
23 876 1
25 876 1
27 876 1
30 876 1
33 876 1
36 876 1
37 876 1
42 876 1
43 876 1
44 876 1
47 876 1
49 876 1
50 876 1
54 876 1
55 876 1
56 876 1
58 876 1
59 876 1
60 876 1
64 876 1
67 876 1
68 876 1
69 876 1
74 876 1
75 876 1
77 876 1
78 876 1
80 876 1
83 876 1
84 876 1
86 876 1
89 876 1
90 876 1
92 876 1
95 876 1
97 876 1
99 876 1
100 876 1
101 876 1
102 876 1
103 876 1
105 876 1
106 876 1
108 876 1
109 876 1
110 876 1
111 876 1
115 876 1
116 876 1
119 876 1
121 876 1
122 876 1
123 876 1
124 876 1
127 876 1
128 876 1
131 876 1
134 876 1
136 876 1
2 877 1
4 877 1
34 877 1
36 877 1
37 877 1
38 877 1
39 877 1
41 877 1
42 877 1
48 877 1
49 877 1
51 877 1
53 877 1
55 877 1
60 877 1
62 877 1
63 877 1
65 877 1
68 877 1
69 877 1
70 877 1
74 877 1
76 877 1
79 877 1
80 877 1
81 877 1
82 877 1
83 877 1
84 877 1
89 877 1
91 877 1
93 877 1
95 877 1
96 877 1
97 877 1
99 877 1
101 877 1
103 877 1
104 877 1
106 877 1
107 877 1
109 877 1
110 877 1
113 877 1
115 877 1
116 877 1
118 877 1
123 877 1
125 877 1
129 877 1
133 877 1
134 877 1
136 877 1
1 878 1
4 878 1
9 878 1
11 878 1
12 878 1
13 878 1
14 878 1
16 878 1
17 878 1
18 878 1
21 878 1
23 878 1
25 878 1
27 878 1
30 878 1
33 878 1
34 878 1
37 878 1
40 878 1
41 878 1
42 878 1
48 878 1
52 878 1
53 878 1
54 878 1
55 878 1
57 878 1
59 878 1
68 878 1
70 878 1
71 878 1
72 878 1
73 878 1
76 878 1
77 878 1
78 878 1
82 878 1
86 878 1
87 878 1
88 878 1
89 878 1
91 878 1
97 878 1
99 878 1
103 878 1
104 878 1
105 878 1
107 878 1
108 878 1
111 878 1
114 878 1
115 878 1
116 878 1
117 878 1
119 878 1
121 878 1
124 878 1
125 878 1
128 878 1
129 878 1
131 878 1
132 878 1
133 878 1
2 879 1
36 879 1
37 879 1
38 879 1
39 879 1
41 879 1
44 879 1
45 879 1
48 879 1
53 879 1
54 879 1
56 879 1
60 879 1
61 879 1
64 879 1
66 879 1
68 879 1
69 879 1
71 879 1
72 879 1
75 879 1
77 879 1
78 879 1
79 879 1
80 879 1
82 879 1
83 879 1
86 879 1
87 879 1
91 879 1
94 879 1
97 879 1
98 879 1
102 879 1
105 879 1
107 879 1
108 879 1
109 879 1
112 879 1
114 879 1
115 879 1
116 879 1
122 879 1
123 879 1
125 879 1
131 879 1
132 879 1
133 879 1
134 879 1
1 880 1
4 880 1
9 880 1
11 880 1
12 880 1
13 880 1
14 880 1
16 880 1
17 880 1
18 880 1
21 880 1
23 880 1
25 880 1
27 880 1
30 880 1
33 880 1
34 880 1
36 880 1
38 880 1
40 880 1
43 880 1
45 880 1
46 880 1
47 880 1
48 880 1
52 880 1
54 880 1
56 880 1
58 880 1
61 880 1
63 880 1
65 880 1
70 880 1
72 880 1
74 880 1
75 880 1
76 880 1
77 880 1
78 880 1
79 880 1
82 880 1
90 880 1
91 880 1
92 880 1
93 880 1
94 880 1
95 880 1
96 880 1
97 880 1
100 880 1
101 880 1
102 880 1
108 880 1
109 880 1
112 880 1
115 880 1
116 880 1
117 880 1
119 880 1
120 880 1
121 880 1
122 880 1
127 880 1
130 880 1
135 880 1
136 880 1
2 881 1
3 881 1
38 881 1
44 881 1
46 881 1
47 881 1
48 881 1
53 881 1
54 881 1
56 881 1
58 881 1
59 881 1
60 881 1
64 881 1
65 881 1
66 881 1
68 881 1
69 881 1
70 881 1
74 881 1
75 881 1
76 881 1
77 881 1
78 881 1
79 881 1
83 881 1
84 881 1
85 881 1
86 881 1
88 881 1
89 881 1
90 881 1
91 881 1
92 881 1
96 881 1
97 881 1
100 881 1
106 881 1
107 881 1
111 881 1
114 881 1
115 881 1
118 881 1
119 881 1
125 881 1
126 881 1
127 881 1
128 881 1
130 881 1
132 881 1
134 881 1
1 882 1
2 882 1
3 882 1
9 882 1
11 882 1
12 882 1
13 882 1
14 882 1
16 882 1
17 882 1
18 882 1
21 882 1
23 882 1
25 882 1
27 882 1
30 882 1
33 882 1
34 882 1
37 882 1
38 882 1
39 882 1
41 882 1
46 882 1
51 882 1
52 882 1
54 882 1
58 882 1
59 882 1
60 882 1
63 882 1
65 882 1
70 882 1
71 882 1
72 882 1
73 882 1
74 882 1
76 882 1
78 882 1
79 882 1
80 882 1
81 882 1
82 882 1
83 882 1
84 882 1
85 882 1
86 882 1
87 882 1
88 882 1
89 882 1
92 882 1
93 882 1
95 882 1
96 882 1
97 882 1
100 882 1
101 882 1
102 882 1
104 882 1
108 882 1
111 882 1
112 882 1
113 882 1
115 882 1
118 882 1
119 882 1
120 882 1
122 882 1
123 882 1
124 882 1
126 882 1
127 882 1
129 882 1
132 882 1
134 882 1
135 882 1
1 883 1
34 883 1
36 883 1
37 883 1
41 883 1
42 883 1
45 883 1
47 883 1
48 883 1
49 883 1
51 883 1
53 883 1
56 883 1
57 883 1
58 883 1
59 883 1
60 883 1
61 883 1
64 883 1
65 883 1
66 883 1
68 883 1
72 883 1
73 883 1
75 883 1
77 883 1
78 883 1
80 883 1
81 883 1
85 883 1
91 883 1
92 883 1
95 883 1
99 883 1
102 883 1
103 883 1
106 883 1
109 883 1
112 883 1
114 883 1
115 883 1
116 883 1
118 883 1
120 883 1
121 883 1
126 883 1
128 883 1
130 883 1
131 883 1
132 883 1
133 883 1
134 883 1
3 884 1
4 884 1
9 884 1
11 884 1
12 884 1
13 884 1
14 884 1
16 884 1
17 884 1
18 884 1
21 884 1
23 884 1
25 884 1
27 884 1
30 884 1
33 884 1
37 884 1
39 884 1
40 884 1
41 884 1
42 884 1
44 884 1
45 884 1
46 884 1
48 884 1
52 884 1
53 884 1
54 884 1
55 884 1
56 884 1
58 884 1
59 884 1
61 884 1
62 884 1
64 884 1
66 884 1
67 884 1
73 884 1
74 884 1
75 884 1
78 884 1
80 884 1
83 884 1
85 884 1
89 884 1
91 884 1
92 884 1
95 884 1
96 884 1
97 884 1
99 884 1
102 884 1
106 884 1
107 884 1
108 884 1
109 884 1
110 884 1
112 884 1
113 884 1
115 884 1
117 884 1
120 884 1
121 884 1
122 884 1
123 884 1
124 884 1
130 884 1
136 884 1
3 885 1
36 885 1
37 885 1
38 885 1
45 885 1
46 885 1
50 885 1
51 885 1
52 885 1
53 885 1
54 885 1
55 885 1
56 885 1
57 885 1
58 885 1
60 885 1
61 885 1
62 885 1
65 885 1
66 885 1
67 885 1
72 885 1
74 885 1
78 885 1
79 885 1
81 885 1
82 885 1
84 885 1
86 885 1
87 885 1
89 885 1
91 885 1
93 885 1
96 885 1
98 885 1
100 885 1
105 885 1
106 885 1
107 885 1
109 885 1
111 885 1
113 885 1
114 885 1
118 885 1
125 885 1
128 885 1
130 885 1
135 885 1
136 885 1
2 886 1
3 886 1
9 886 1
11 886 1
12 886 1
13 886 1
14 886 1
16 886 1
17 886 1
18 886 1
21 886 1
23 886 1
25 886 1
27 886 1
30 886 1
33 886 1
34 886 1
36 886 1
37 886 1
39 886 1
40 886 1
43 886 1
48 886 1
49 886 1
50 886 1
52 886 1
54 886 1
55 886 1
56 886 1
57 886 1
58 886 1
59 886 1
60 886 1
61 886 1
63 886 1
65 886 1
66 886 1
71 886 1
72 886 1
75 886 1
77 886 1
78 886 1
80 886 1
81 886 1
82 886 1
86 886 1
88 886 1
96 886 1
98 886 1
99 886 1
105 886 1
106 886 1
107 886 1
109 886 1
110 886 1
111 886 1
117 886 1
124 886 1
126 886 1
127 886 1
128 886 1
129 886 1
133 886 1
135 886 1
136 886 1
1 887 1
36 887 1
38 887 1
39 887 1
40 887 1
45 887 1
46 887 1
50 887 1
51 887 1
53 887 1
54 887 1
55 887 1
59 887 1
60 887 1
64 887 1
66 887 1
71 887 1
73 887 1
74 887 1
76 887 1
77 887 1
78 887 1
80 887 1
81 887 1
82 887 1
83 887 1
86 887 1
87 887 1
88 887 1
89 887 1
91 887 1
98 887 1
100 887 1
101 887 1
103 887 1
104 887 1
105 887 1
108 887 1
110 887 1
112 887 1
114 887 1
115 887 1
119 887 1
120 887 1
123 887 1
125 887 1
126 887 1
127 887 1
128 887 1
130 887 1
131 887 1
132 887 1
133 887 1
135 887 1
4 888 1
9 888 1
11 888 1
12 888 1
13 888 1
14 888 1
16 888 1
17 888 1
18 888 1
21 888 1
23 888 1
25 888 1
27 888 1
30 888 1
33 888 1
37 888 1
38 888 1
41 888 1
42 888 1
45 888 1
52 888 1
53 888 1
54 888 1
55 888 1
57 888 1
63 888 1
64 888 1
65 888 1
66 888 1
67 888 1
71 888 1
73 888 1
76 888 1
77 888 1
78 888 1
84 888 1
88 888 1
91 888 1
92 888 1
93 888 1
94 888 1
95 888 1
98 888 1
99 888 1
101 888 1
102 888 1
103 888 1
110 888 1
113 888 1
114 888 1
115 888 1
117 888 1
118 888 1
119 888 1
121 888 1
125 888 1
127 888 1
128 888 1
130 888 1
132 888 1
135 888 1
136 888 1
2 889 1
3 889 1
34 889 1
36 889 1
38 889 1
39 889 1
43 889 1
44 889 1
47 889 1
49 889 1
50 889 1
52 889 1
56 889 1
58 889 1
60 889 1
61 889 1
63 889 1
65 889 1
66 889 1
70 889 1
71 889 1
72 889 1
73 889 1
75 889 1
76 889 1
78 889 1
79 889 1
80 889 1
82 889 1
83 889 1
87 889 1
88 889 1
89 889 1
90 889 1
92 889 1
94 889 1
95 889 1
96 889 1
100 889 1
101 889 1
102 889 1
103 889 1
105 889 1
110 889 1
113 889 1
114 889 1
116 889 1
119 889 1
121 889 1
123 889 1
124 889 1
125 889 1
127 889 1
130 889 1
134 889 1
135 889 1
136 889 1
1 890 1
2 890 1
4 890 1
9 890 1
11 890 1
12 890 1
13 890 1
14 890 1
16 890 1
17 890 1
18 890 1
21 890 1
23 890 1
25 890 1
27 890 1
30 890 1
33 890 1
36 890 1
37 890 1
45 890 1
47 890 1
48 890 1
49 890 1
51 890 1
56 890 1
59 890 1
60 890 1
62 890 1
63 890 1
64 890 1
66 890 1
69 890 1
70 890 1
73 890 1
74 890 1
77 890 1
78 890 1
79 890 1
82 890 1
84 890 1
85 890 1
88 890 1
90 890 1
92 890 1
96 890 1
101 890 1
102 890 1
103 890 1
105 890 1
107 890 1
109 890 1
110 890 1
112 890 1
113 890 1
115 890 1
116 890 1
121 890 1
127 890 1
133 890 1
134 890 1
136 890 1
1 891 1
2 891 1
3 891 1
34 891 1
36 891 1
40 891 1
41 891 1
42 891 1
45 891 1
49 891 1
51 891 1
58 891 1
59 891 1
62 891 1
63 891 1
67 891 1
72 891 1
76 891 1
77 891 1
78 891 1
79 891 1
85 891 1
88 891 1
89 891 1
91 891 1
94 891 1
96 891 1
102 891 1
103 891 1
105 891 1
107 891 1
108 891 1
109 891 1
111 891 1
112 891 1
113 891 1
114 891 1
117 891 1
118 891 1
119 891 1
120 891 1
123 891 1
124 891 1
125 891 1
128 891 1
129 891 1
130 891 1
133 891 1
134 891 1
135 891 1
136 891 1
1 892 1
2 892 1
3 892 1
9 892 1
11 892 1
12 892 1
13 892 1
14 892 1
16 892 1
17 892 1
18 892 1
21 892 1
23 892 1
25 892 1
27 892 1
30 892 1
33 892 1
34 892 1
40 892 1
41 892 1
42 892 1
43 892 1
44 892 1
45 892 1
46 892 1
48 892 1
56 892 1
58 892 1
60 892 1
61 892 1
62 892 1
64 892 1
65 892 1
66 892 1
67 892 1
68 892 1
70 892 1
72 892 1
73 892 1
76 892 1
79 892 1
81 892 1
82 892 1
83 892 1
84 892 1
87 892 1
88 892 1
89 892 1
90 892 1
92 892 1
93 892 1
94 892 1
95 892 1
98 892 1
99 892 1
104 892 1
105 892 1
106 892 1
110 892 1
112 892 1
113 892 1
114 892 1
115 892 1
116 892 1
117 892 1
119 892 1
121 892 1
124 892 1
125 892 1
126 892 1
131 892 1
135 892 1
1 893 1
3 893 1
4 893 1
37 893 1
38 893 1
39 893 1
40 893 1
45 893 1
46 893 1
48 893 1
50 893 1
51 893 1
52 893 1
54 893 1
55 893 1
58 893 1
63 893 1
65 893 1
66 893 1
67 893 1
69 893 1
70 893 1
71 893 1
72 893 1
73 893 1
75 893 1
76 893 1
77 893 1
78 893 1
80 893 1
83 893 1
87 893 1
90 893 1
91 893 1
92 893 1
94 893 1
98 893 1
99 893 1
100 893 1
103 893 1
104 893 1
106 893 1
109 893 1
112 893 1
114 893 1
117 893 1
118 893 1
119 893 1
121 893 1
124 893 1
125 893 1
126 893 1
127 893 1
129 893 1
133 893 1
2 894 1
3 894 1
4 894 1
9 894 1
11 894 1
12 894 1
13 894 1
14 894 1
16 894 1
17 894 1
18 894 1
21 894 1
23 894 1
25 894 1
27 894 1
30 894 1
33 894 1
36 894 1
37 894 1
40 894 1
43 894 1
44 894 1
45 894 1
46 894 1
47 894 1
48 894 1
49 894 1
50 894 1
51 894 1
53 894 1
55 894 1
58 894 1
59 894 1
60 894 1
65 894 1
67 894 1
69 894 1
70 894 1
73 894 1
74 894 1
78 894 1
79 894 1
90 894 1
92 894 1
94 894 1
96 894 1
97 894 1
98 894 1
102 894 1
103 894 1
104 894 1
105 894 1
106 894 1
107 894 1
109 894 1
114 894 1
115 894 1
116 894 1
118 894 1
119 894 1
123 894 1
124 894 1
127 894 1
128 894 1
131 894 1
134 894 1
135 894 1
1 895 1
3 895 1
36 895 1
37 895 1
40 895 1
41 895 1
43 895 1
44 895 1
48 895 1
51 895 1
53 895 1
54 895 1
59 895 1
61 895 1
62 895 1
63 895 1
67 895 1
68 895 1
70 895 1
72 895 1
73 895 1
79 895 1
80 895 1
83 895 1
84 895 1
85 895 1
86 895 1
87 895 1
88 895 1
89 895 1
90 895 1
93 895 1
95 895 1
101 895 1
103 895 1
104 895 1
106 895 1
107 895 1
108 895 1
112 895 1
113 895 1
117 895 1
119 895 1
121 895 1
122 895 1
124 895 1
125 895 1
126 895 1
127 895 1
129 895 1
132 895 1
135 895 1
2 896 1
9 896 1
11 896 1
12 896 1
13 896 1
14 896 1
16 896 1
17 896 1
18 896 1
21 896 1
23 896 1
25 896 1
27 896 1
30 896 1
33 896 1
34 896 1
39 896 1
40 896 1
41 896 1
44 896 1
45 896 1
47 896 1
48 896 1
49 896 1
50 896 1
51 896 1
52 896 1
56 896 1
57 896 1
58 896 1
59 896 1
63 896 1
64 896 1
66 896 1
67 896 1
68 896 1
69 896 1
73 896 1
75 896 1
76 896 1
78 896 1
79 896 1
82 896 1
83 896 1
84 896 1
86 896 1
87 896 1
88 896 1
93 896 1
94 896 1
97 896 1
100 896 1
103 896 1
104 896 1
105 896 1
107 896 1
108 896 1
109 896 1
112 896 1
116 896 1
118 896 1
119 896 1
120 896 1
122 896 1
123 896 1
125 896 1
126 896 1
129 896 1
131 896 1
132 896 1
134 896 1
135 896 1
1 897 1
2 897 1
4 897 1
37 897 1
38 897 1
39 897 1
41 897 1
42 897 1
44 897 1
45 897 1
49 897 1
50 897 1
51 897 1
52 897 1
53 897 1
55 897 1
59 897 1
61 897 1
62 897 1
63 897 1
64 897 1
67 897 1
71 897 1
72 897 1
73 897 1
74 897 1
75 897 1
77 897 1
78 897 1
79 897 1
83 897 1
87 897 1
88 897 1
90 897 1
92 897 1
93 897 1
94 897 1
95 897 1
97 897 1
98 897 1
100 897 1
102 897 1
104 897 1
105 897 1
106 897 1
107 897 1
110 897 1
112 897 1
114 897 1
118 897 1
119 897 1
125 897 1
127 897 1
129 897 1
131 897 1
136 897 1
1 898 1
4 898 1
9 898 1
11 898 1
12 898 1
13 898 1
14 898 1
16 898 1
17 898 1
18 898 1
21 898 1
23 898 1
25 898 1
27 898 1
30 898 1
33 898 1
40 898 1
43 898 1
44 898 1
47 898 1
49 898 1
50 898 1
51 898 1
54 898 1
56 898 1
57 898 1
60 898 1
63 898 1
66 898 1
67 898 1
68 898 1
70 898 1
71 898 1
73 898 1
74 898 1
75 898 1
76 898 1
78 898 1
79 898 1
81 898 1
82 898 1
84 898 1
90 898 1
96 898 1
98 898 1
101 898 1
104 898 1
108 898 1
111 898 1
113 898 1
114 898 1
117 898 1
120 898 1
121 898 1
126 898 1
129 898 1
130 898 1
131 898 1
132 898 1
135 898 1
2 899 1
39 899 1
40 899 1
42 899 1
44 899 1
47 899 1
50 899 1
51 899 1
53 899 1
54 899 1
57 899 1
58 899 1
59 899 1
62 899 1
63 899 1
66 899 1
67 899 1
72 899 1
73 899 1
74 899 1
75 899 1
76 899 1
77 899 1
83 899 1
84 899 1
88 899 1
89 899 1
91 899 1
94 899 1
95 899 1
97 899 1
100 899 1
101 899 1
105 899 1
106 899 1
109 899 1
110 899 1
113 899 1
115 899 1
116 899 1
117 899 1
118 899 1
119 899 1
121 899 1
123 899 1
125 899 1
127 899 1
129 899 1
131 899 1
132 899 1
133 899 1
134 899 1
136 899 1
1 900 1
3 900 1
4 900 1
9 900 1
11 900 1
12 900 1
13 900 1
14 900 1
16 900 1
17 900 1
18 900 1
21 900 1
23 900 1
25 900 1
27 900 1
30 900 1
33 900 1
34 900 1
36 900 1
38 900 1
42 900 1
46 900 1
47 900 1
48 900 1
50 900 1
51 900 1
53 900 1
54 900 1
55 900 1
56 900 1
57 900 1
58 900 1
62 900 1
66 900 1
69 900 1
71 900 1
74 900 1
78 900 1
79 900 1
81 900 1
84 900 1
85 900 1
86 900 1
87 900 1
88 900 1
89 900 1
90 900 1
91 900 1
92 900 1
102 900 1
104 900 1
105 900 1
106 900 1
107 900 1
109 900 1
111 900 1
113 900 1
114 900 1
115 900 1
118 900 1
120 900 1
121 900 1
125 900 1
126 900 1
127 900 1
128 900 1
130 900 1
131 900 1
134 900 1
136 900 1
1 901 1
2 901 1
4 901 1
36 901 1
38 901 1
40 901 1
42 901 1
43 901 1
45 901 1
47 901 1
48 901 1
51 901 1
54 901 1
56 901 1
58 901 1
61 901 1
67 901 1
69 901 1
71 901 1
72 901 1
76 901 1
77 901 1
78 901 1
80 901 1
81 901 1
82 901 1
86 901 1
87 901 1
88 901 1
89 901 1
95 901 1
96 901 1
97 901 1
99 901 1
100 901 1
106 901 1
108 901 1
109 901 1
113 901 1
115 901 1
116 901 1
117 901 1
121 901 1
123 901 1
126 901 1
128 901 1
130 901 1
131 901 1
135 901 1
1 902 1
2 902 1
34 902 1
36 902 1
40 902 1
43 902 1
45 902 1
47 902 1
49 902 1
50 902 1
55 902 1
57 902 1
61 902 1
62 902 1
63 902 1
64 902 1
65 902 1
66 902 1
67 902 1
68 902 1
70 902 1
73 902 1
74 902 1
76 902 1
78 902 1
79 902 1
81 902 1
83 902 1
84 902 1
85 902 1
88 902 1
89 902 1
90 902 1
92 902 1
94 902 1
96 902 1
97 902 1
99 902 1
101 902 1
102 902 1
103 902 1
104 902 1
106 902 1
107 902 1
108 902 1
109 902 1
112 902 1
114 902 1
116 902 1
118 902 1
121 902 1
123 902 1
125 902 1
127 902 1
129 902 1
134 902 1
135 902 1
136 902 1
1 903 1
2 903 1
4 903 1
39 903 1
41 903 1
42 903 1
43 903 1
45 903 1
49 903 1
50 903 1
54 903 1
55 903 1
56 903 1
57 903 1
58 903 1
59 903 1
62 903 1
69 903 1
71 903 1
72 903 1
74 903 1
77 903 1
79 903 1
82 903 1
84 903 1
86 903 1
87 903 1
88 903 1
91 903 1
92 903 1
93 903 1
94 903 1
95 903 1
97 903 1
105 903 1
106 903 1
107 903 1
108 903 1
110 903 1
111 903 1
113 903 1
114 903 1
115 903 1
121 903 1
124 903 1
127 903 1
128 903 1
130 903 1
131 903 1
132 903 1
135 903 1
136 903 1
1 904 1
2 904 1
3 904 1
4 904 1
34 904 1
39 904 1
40 904 1
43 904 1
45 904 1
46 904 1
48 904 1
50 904 1
51 904 1
52 904 1
53 904 1
56 904 1
62 904 1
64 904 1
65 904 1
66 904 1
68 904 1
70 904 1
71 904 1
73 904 1
74 904 1
75 904 1
76 904 1
78 904 1
80 904 1
82 904 1
83 904 1
84 904 1
85 904 1
86 904 1
89 904 1
95 904 1
98 904 1
99 904 1
101 904 1
103 904 1
104 904 1
105 904 1
119 904 1
122 904 1
124 904 1
125 904 1
126 904 1
127 904 1
128 904 1
129 904 1
133 904 1
135 904 1
1 905 1
3 905 1
4 905 1
36 905 1
37 905 1
41 905 1
43 905 1
44 905 1
46 905 1
47 905 1
48 905 1
49 905 1
51 905 1
53 905 1
55 905 1
59 905 1
60 905 1
65 905 1
70 905 1
71 905 1
72 905 1
73 905 1
76 905 1
80 905 1
81 905 1
85 905 1
86 905 1
88 905 1
90 905 1
91 905 1
92 905 1
93 905 1
95 905 1
96 905 1
97 905 1
99 905 1
101 905 1
103 905 1
105 905 1
108 905 1
109 905 1
110 905 1
111 905 1
112 905 1
113 905 1
116 905 1
117 905 1
118 905 1
120 905 1
122 905 1
123 905 1
124 905 1
128 905 1
130 905 1
131 905 1
133 905 1
136 905 1
3 906 1
34 906 1
36 906 1
37 906 1
41 906 1
44 906 1
45 906 1
47 906 1
51 906 1
53 906 1
54 906 1
56 906 1
57 906 1
58 906 1
60 906 1
65 906 1
68 906 1
72 906 1
74 906 1
76 906 1
77 906 1
79 906 1
81 906 1
84 906 1
85 906 1
87 906 1
90 906 1
91 906 1
94 906 1
96 906 1
98 906 1
99 906 1
100 906 1
102 906 1
104 906 1
105 906 1
106 906 1
107 906 1
109 906 1
110 906 1
111 906 1
112 906 1
114 906 1
116 906 1
117 906 1
120 906 1
122 906 1
123 906 1
126 906 1
127 906 1
135 906 1
3 907 1
34 907 1
37 907 1
44 907 1
48 907 1
49 907 1
53 907 1
54 907 1
55 907 1
56 907 1
62 907 1
68 907 1
71 907 1
73 907 1
74 907 1
77 907 1
78 907 1
79 907 1
82 907 1
86 907 1
87 907 1
89 907 1
92 907 1
94 907 1
95 907 1
96 907 1
97 907 1
102 907 1
103 907 1
104 907 1
105 907 1
106 907 1
107 907 1
112 907 1
115 907 1
116 907 1
118 907 1
119 907 1
121 907 1
122 907 1
123 907 1
125 907 1
126 907 1
127 907 1
128 907 1
129 907 1
130 907 1
132 907 1
135 907 1
3 908 1
4 908 1
36 908 1
37 908 1
38 908 1
39 908 1
40 908 1
43 908 1
46 908 1
51 908 1
52 908 1
54 908 1
55 908 1
57 908 1
59 908 1
65 908 1
67 908 1
68 908 1
69 908 1
70 908 1
71 908 1
72 908 1
73 908 1
74 908 1
75 908 1
80 908 1
82 908 1
83 908 1
87 908 1
88 908 1
89 908 1
91 908 1
92 908 1
93 908 1
96 908 1
98 908 1
99 908 1
106 908 1
108 908 1
109 908 1
115 908 1
117 908 1
118 908 1
119 908 1
121 908 1
122 908 1
123 908 1
128 908 1
130 908 1
131 908 1
132 908 1
133 908 1
135 908 1
136 908 1
37 909 1
38 909 1
40 909 1
41 909 1
44 909 1
45 909 1
47 909 1
48 909 1
49 909 1
52 909 1
54 909 1
55 909 1
56 909 1
62 909 1
66 909 1
68 909 1
69 909 1
70 909 1
71 909 1
72 909 1
75 909 1
78 909 1
80 909 1
81 909 1
83 909 1
84 909 1
87 909 1
88 909 1
89 909 1
90 909 1
91 909 1
95 909 1
97 909 1
99 909 1
102 909 1
103 909 1
104 909 1
106 909 1
107 909 1
108 909 1
109 909 1
112 909 1
114 909 1
117 909 1
118 909 1
122 909 1
123 909 1
125 909 1
126 909 1
127 909 1
128 909 1
129 909 1
132 909 1
133 909 1
134 909 1
136 909 1
2 910 1
3 910 1
34 910 1
36 910 1
38 910 1
41 910 1
43 910 1
44 910 1
45 910 1
48 910 1
49 910 1
58 910 1
60 910 1
61 910 1
62 910 1
63 910 1
64 910 1
65 910 1
66 910 1
69 910 1
73 910 1
75 910 1
76 910 1
77 910 1
79 910 1
80 910 1
81 910 1
83 910 1
84 910 1
85 910 1
86 910 1
88 910 1
89 910 1
90 910 1
92 910 1
94 910 1
95 910 1
97 910 1
99 910 1
101 910 1
102 910 1
104 910 1
105 910 1
107 910 1
110 910 1
116 910 1
117 910 1
118 910 1
121 910 1
123 910 1
126 910 1
128 910 1
130 910 1
131 910 1
132 910 1
134 910 1
1 911 1
3 911 1
4 911 1
34 911 1
38 911 1
39 911 1
41 911 1
44 911 1
49 911 1
52 911 1
54 911 1
56 911 1
57 911 1
59 911 1
60 911 1
61 911 1
62 911 1
65 911 1
66 911 1
69 911 1
72 911 1
73 911 1
76 911 1
77 911 1
79 911 1
80 911 1
81 911 1
82 911 1
84 911 1
85 911 1
86 911 1
87 911 1
88 911 1
92 911 1
93 911 1
94 911 1
95 911 1
97 911 1
99 911 1
103 911 1
105 911 1
107 911 1
109 911 1
110 911 1
112 911 1
114 911 1
120 911 1
121 911 1
123 911 1
124 911 1
125 911 1
126 911 1
132 911 1
133 911 1
134 911 1
136 911 1
3 912 1
36 912 1
37 912 1
38 912 1
45 912 1
46 912 1
50 912 1
51 912 1
52 912 1
53 912 1
54 912 1
55 912 1
56 912 1
57 912 1
58 912 1
60 912 1
61 912 1
62 912 1
65 912 1
66 912 1
67 912 1
72 912 1
74 912 1
78 912 1
79 912 1
81 912 1
82 912 1
84 912 1
86 912 1
87 912 1
89 912 1
91 912 1
93 912 1
96 912 1
98 912 1
100 912 1
105 912 1
106 912 1
107 912 1
109 912 1
111 912 1
113 912 1
114 912 1
118 912 1
123 912 1
125 912 1
128 912 1
130 912 1
135 912 1
136 912 1
4 913 1
38 913 1
41 913 1
42 913 1
43 913 1
49 913 1
53 913 1
55 913 1
56 913 1
58 913 1
59 913 1
60 913 1
63 913 1
67 913 1
71 913 1
74 913 1
75 913 1
78 913 1
79 913 1
80 913 1
82 913 1
83 913 1
85 913 1
86 913 1
87 913 1
88 913 1
89 913 1
90 913 1
91 913 1
93 913 1
94 913 1
95 913 1
97 913 1
98 913 1
99 913 1
100 913 1
102 913 1
104 913 1
107 913 1
109 913 1
110 913 1
111 913 1
114 913 1
115 913 1
117 913 1
121 913 1
122 913 1
123 913 1
124 913 1
126 913 1
127 913 1
129 913 1
130 913 1
132 913 1
133 913 1
136 913 1
2 914 1
4 914 1
36 914 1
37 914 1
38 914 1
39 914 1
41 914 1
44 914 1
45 914 1
46 914 1
47 914 1
49 914 1
51 914 1
54 914 1
57 914 1
61 914 1
63 914 1
64 914 1
65 914 1
67 914 1
68 914 1
71 914 1
73 914 1
75 914 1
76 914 1
78 914 1
81 914 1
82 914 1
84 914 1
87 914 1
88 914 1
89 914 1
93 914 1
98 914 1
100 914 1
103 914 1
104 914 1
106 914 1
108 914 1
110 914 1
114 914 1
115 914 1
116 914 1
118 914 1
119 914 1
124 914 1
130 914 1
131 914 1
134 914 1
135 914 1
1 915 1
2 915 1
3 915 1
34 915 1
37 915 1
39 915 1
43 915 1
46 915 1
47 915 1
49 915 1
50 915 1
51 915 1
53 915 1
54 915 1
57 915 1
61 915 1
63 915 1
67 915 1
68 915 1
69 915 1
72 915 1
76 915 1
78 915 1
79 915 1
83 915 1
84 915 1
86 915 1
88 915 1
89 915 1
90 915 1
91 915 1
94 915 1
96 915 1
97 915 1
99 915 1
100 915 1
101 915 1
102 915 1
104 915 1
105 915 1
106 915 1
108 915 1
109 915 1
110 915 1
113 915 1
118 915 1
128 915 1
132 915 1
133 915 1
134 915 1
135 915 1
136 915 1
1 916 1
3 916 1
4 916 1
34 916 1
36 916 1
37 916 1
38 916 1
39 916 1
42 916 1
43 916 1
44 916 1
45 916 1
46 916 1
48 916 1
49 916 1
55 916 1
57 916 1
58 916 1
60 916 1
64 916 1
66 916 1
67 916 1
68 916 1
69 916 1
73 916 1
74 916 1
77 916 1
78 916 1
80 916 1
82 916 1
83 916 1
84 916 1
85 916 1
86 916 1
88 916 1
91 916 1
92 916 1
94 916 1
95 916 1
96 916 1
99 916 1
100 916 1
101 916 1
102 916 1
104 916 1
108 916 1
111 916 1
112 916 1
114 916 1
116 916 1
119 916 1
122 916 1
124 916 1
126 916 1
127 916 1
129 916 1
130 916 1
132 916 1
133 916 1
135 916 1
136 916 1
36 917 1
37 917 1
40 917 1
44 917 1
46 917 1
48 917 1
49 917 1
53 917 1
56 917 1
57 917 1
61 917 1
63 917 1
65 917 1
66 917 1
67 917 1
71 917 1
72 917 1
74 917 1
75 917 1
76 917 1
81 917 1
84 917 1
85 917 1
86 917 1
87 917 1
92 917 1
95 917 1
98 917 1
100 917 1
102 917 1
107 917 1
108 917 1
109 917 1
114 917 1
115 917 1
116 917 1
117 917 1
118 917 1
119 917 1
121 917 1
122 917 1
123 917 1
124 917 1
126 917 1
127 917 1
129 917 1
130 917 1
131 917 1
133 917 1
135 917 1
2 918 1
3 918 1
34 918 1
36 918 1
39 918 1
40 918 1
41 918 1
42 918 1
45 918 1
46 918 1
48 918 1
50 918 1
52 918 1
54 918 1
56 918 1
58 918 1
61 918 1
62 918 1
63 918 1
64 918 1
65 918 1
67 918 1
69 918 1
70 918 1
71 918 1
73 918 1
76 918 1
77 918 1
78 918 1
79 918 1
80 918 1
86 918 1
89 918 1
90 918 1
92 918 1
94 918 1
95 918 1
96 918 1
99 918 1
104 918 1
105 918 1
107 918 1
108 918 1
110 918 1
111 918 1
115 918 1
116 918 1
117 918 1
119 918 1
120 918 1
121 918 1
123 918 1
126 918 1
127 918 1
131 918 1
132 918 1
1 919 1
4 919 1
36 919 1
37 919 1
38 919 1
39 919 1
40 919 1
41 919 1
43 919 1
46 919 1
49 919 1
50 919 1
51 919 1
52 919 1
56 919 1
58 919 1
59 919 1
60 919 1
63 919 1
64 919 1
65 919 1
66 919 1
67 919 1
68 919 1
69 919 1
72 919 1
73 919 1
74 919 1
77 919 1
78 919 1
81 919 1
82 919 1
83 919 1
85 919 1
88 919 1
92 919 1
93 919 1
94 919 1
95 919 1
100 919 1
101 919 1
103 919 1
104 919 1
108 919 1
113 919 1
116 919 1
117 919 1
120 919 1
121 919 1
122 919 1
123 919 1
126 919 1
127 919 1
129 919 1
136 919 1
2 920 1
3 920 1
34 920 1
36 920 1
37 920 1
38 920 1
39 920 1
41 920 1
44 920 1
45 920 1
46 920 1
51 920 1
52 920 1
54 920 1
56 920 1
58 920 1
59 920 1
60 920 1
61 920 1
65 920 1
66 920 1
67 920 1
71 920 1
72 920 1
73 920 1
74 920 1
75 920 1
78 920 1
79 920 1
80 920 1
84 920 1
93 920 1
98 920 1
99 920 1
101 920 1
102 920 1
104 920 1
110 920 1
111 920 1
116 920 1
117 920 1
122 920 1
123 920 1
124 920 1
125 920 1
126 920 1
128 920 1
130 920 1
131 920 1
133 920 1
136 920 1
1 921 1
34 921 1
36 921 1
38 921 1
39 921 1
41 921 1
45 921 1
46 921 1
47 921 1
49 921 1
50 921 1
51 921 1
52 921 1
53 921 1
56 921 1
57 921 1
60 921 1
61 921 1
62 921 1
64 921 1
67 921 1
71 921 1
72 921 1
75 921 1
77 921 1
80 921 1
81 921 1
82 921 1
83 921 1
85 921 1
86 921 1
87 921 1
90 921 1
93 921 1
95 921 1
96 921 1
97 921 1
99 921 1
101 921 1
105 921 1
106 921 1
107 921 1
108 921 1
109 921 1
111 921 1
112 921 1
113 921 1
115 921 1
116 921 1
118 921 1
121 921 1
122 921 1
126 921 1
128 921 1
132 921 1
134 921 1
136 921 1
2 922 1
34 922 1
37 922 1
41 922 1
42 922 1
44 922 1
45 922 1
46 922 1
47 922 1
48 922 1
51 922 1
52 922 1
54 922 1
55 922 1
60 922 1
61 922 1
62 922 1
64 922 1
65 922 1
67 922 1
68 922 1
69 922 1
75 922 1
79 922 1
81 922 1
89 922 1
90 922 1
91 922 1
95 922 1
96 922 1
97 922 1
98 922 1
99 922 1
101 922 1
104 922 1
107 922 1
110 922 1
111 922 1
112 922 1
113 922 1
115 922 1
118 922 1
121 922 1
122 922 1
123 922 1
126 922 1
128 922 1
130 922 1
132 922 1
133 922 1
134 922 1
135 922 1
136 922 1
1 923 1
2 923 1
36 923 1
37 923 1
38 923 1
41 923 1
44 923 1
45 923 1
46 923 1
49 923 1
50 923 1
51 923 1
52 923 1
53 923 1
59 923 1
60 923 1
65 923 1
66 923 1
68 923 1
70 923 1
73 923 1
75 923 1
77 923 1
78 923 1
79 923 1
82 923 1
83 923 1
85 923 1
87 923 1
88 923 1
90 923 1
92 923 1
94 923 1
95 923 1
97 923 1
98 923 1
99 923 1
101 923 1
103 923 1
104 923 1
105 923 1
107 923 1
108 923 1
110 923 1
113 923 1
117 923 1
118 923 1
121 923 1
122 923 1
123 923 1
124 923 1
126 923 1
128 923 1
129 923 1
130 923 1
135 923 1
136 923 1
1 924 1
2 924 1
3 924 1
37 924 1
39 924 1
40 924 1
42 924 1
43 924 1
44 924 1
46 924 1
47 924 1
49 924 1
50 924 1
51 924 1
54 924 1
56 924 1
58 924 1
59 924 1
62 924 1
65 924 1
69 924 1
72 924 1
75 924 1
82 924 1
84 924 1
85 924 1
87 924 1
89 924 1
91 924 1
92 924 1
93 924 1
94 924 1
95 924 1
96 924 1
97 924 1
98 924 1
99 924 1
103 924 1
105 924 1
106 924 1
109 924 1
110 924 1
114 924 1
116 924 1
117 924 1
120 924 1
121 924 1
123 924 1
124 924 1
125 924 1
129 924 1
130 924 1
131 924 1
1 925 1
3 925 1
4 925 1
34 925 1
36 925 1
38 925 1
40 925 1
41 925 1
46 925 1
47 925 1
50 925 1
53 925 1
54 925 1
55 925 1
58 925 1
61 925 1
63 925 1
64 925 1
65 925 1
66 925 1
68 925 1
75 925 1
78 925 1
85 925 1
86 925 1
87 925 1
88 925 1
89 925 1
93 925 1
94 925 1
96 925 1
97 925 1
101 925 1
102 925 1
103 925 1
109 925 1
110 925 1
112 925 1
115 925 1
116 925 1
119 925 1
121 925 1
122 925 1
123 925 1
125 925 1
126 925 1
129 925 1
131 925 1
132 925 1
134 925 1
136 925 1
4 926 1
40 926 1
43 926 1
44 926 1
46 926 1
48 926 1
51 926 1
54 926 1
55 926 1
56 926 1
57 926 1
60 926 1
61 926 1
62 926 1
63 926 1
64 926 1
69 926 1
75 926 1
76 926 1
77 926 1
84 926 1
88 926 1
89 926 1
94 926 1
96 926 1
97 926 1
98 926 1
99 926 1
100 926 1
103 926 1
104 926 1
114 926 1
115 926 1
118 926 1
120 926 1
129 926 1
131 926 1
134 926 1
136 926 1
2 927 1
3 927 1
37 927 1
40 927 1
41 927 1
43 927 1
46 927 1
48 927 1
49 927 1
51 927 1
52 927 1
55 927 1
56 927 1
57 927 1
58 927 1
61 927 1
63 927 1
66 927 1
68 927 1
69 927 1
70 927 1
77 927 1
78 927 1
83 927 1
84 927 1
86 927 1
87 927 1
88 927 1
92 927 1
93 927 1
95 927 1
96 927 1
97 927 1
98 927 1
102 927 1
105 927 1
108 927 1
109 927 1
110 927 1
111 927 1
112 927 1
114 927 1
116 927 1
117 927 1
118 927 1
119 927 1
120 927 1
121 927 1
123 927 1
124 927 1
125 927 1
126 927 1
127 927 1
129 927 1
131 927 1
132 927 1
136 927 1
1 928 1
3 928 1
4 928 1
34 928 1
36 928 1
38 928 1
41 928 1
42 928 1
44 928 1
45 928 1
47 928 1
52 928 1
54 928 1
55 928 1
57 928 1
59 928 1
60 928 1
61 928 1
62 928 1
63 928 1
65 928 1
66 928 1
69 928 1
70 928 1
73 928 1
74 928 1
75 928 1
76 928 1
77 928 1
78 928 1
80 928 1
83 928 1
84 928 1
86 928 1
89 928 1
90 928 1
91 928 1
93 928 1
96 928 1
97 928 1
98 928 1
100 928 1
101 928 1
102 928 1
103 928 1
106 928 1
107 928 1
108 928 1
115 928 1
116 928 1
119 928 1
123 928 1
125 928 1
128 928 1
131 928 1
132 928 1
134 928 1
4 929 1
36 929 1
37 929 1
40 929 1
41 929 1
43 929 1
47 929 1
50 929 1
51 929 1
57 929 1
60 929 1
62 929 1
63 929 1
64 929 1
66 929 1
69 929 1
71 929 1
72 929 1
73 929 1
77 929 1
81 929 1
83 929 1
85 929 1
86 929 1
87 929 1
88 929 1
90 929 1
93 929 1
98 929 1
99 929 1
102 929 1
103 929 1
104 929 1
105 929 1
111 929 1
112 929 1
113 929 1
114 929 1
116 929 1
117 929 1
119 929 1
120 929 1
121 929 1
123 929 1
124 929 1
125 929 1
127 929 1
128 929 1
135 929 1
2 930 1
34 930 1
36 930 1
42 930 1
43 930 1
45 930 1
47 930 1
49 930 1
55 930 1
56 930 1
57 930 1
58 930 1
60 930 1
61 930 1
62 930 1
66 930 1
70 930 1
72 930 1
73 930 1
74 930 1
75 930 1
76 930 1
77 930 1
78 930 1
79 930 1
80 930 1
84 930 1
85 930 1
87 930 1
89 930 1
90 930 1
93 930 1
94 930 1
98 930 1
100 930 1
101 930 1
108 930 1
109 930 1
110 930 1
111 930 1
117 930 1
118 930 1
121 930 1
123 930 1
124 930 1
125 930 1
126 930 1
127 930 1
128 930 1
129 930 1
130 930 1
133 930 1
134 930 1
9 932 1
11 932 1
12 932 1
13 932 1
14 932 1
16 932 1
17 932 1
18 932 1
21 932 1
23 932 1
25 932 1
27 932 1
30 932 1
33 932 1
37 932 1
42 932 1
45 932 1
46 932 1
48 932 1
49 932 1
52 932 1
53 932 1
54 932 1
55 932 1
56 932 1
58 932 1
61 932 1
64 932 1
65 932 1
68 932 1
69 932 1
70 932 1
72 932 1
73 932 1
74 932 1
76 932 1
77 932 1
78 932 1
79 932 1
82 932 1
83 932 1
84 932 1
87 932 1
92 932 1
94 932 1
95 932 1
96 932 1
97 932 1
98 932 1
99 932 1
103 932 1
104 932 1
105 932 1
108 932 1
109 932 1
112 932 1
114 932 1
118 932 1
121 932 1
123 932 1
127 932 1
128 932 1
129 932 1
131 932 1
132 932 1
133 932 1
134 932 1
135 932 1
136 932 1
2 933 1
3 933 1
36 933 1
37 933 1
38 933 1
39 933 1
40 933 1
43 933 1
45 933 1
46 933 1
48 933 1
51 933 1
52 933 1
54 933 1
55 933 1
56 933 1
58 933 1
59 933 1
61 933 1
62 933 1
63 933 1
65 933 1
66 933 1
68 933 1
69 933 1
70 933 1
72 933 1
74 933 1
78 933 1
79 933 1
81 933 1
82 933 1
85 933 1
88 933 1
89 933 1
90 933 1
93 933 1
94 933 1
95 933 1
96 933 1
97 933 1
98 933 1
99 933 1
100 933 1
101 933 1
103 933 1
104 933 1
106 933 1
107 933 1
108 933 1
109 933 1
111 933 1
112 933 1
113 933 1
114 933 1
115 933 1
117 933 1
119 933 1
120 933 1
121 933 1
124 933 1
125 933 1
127 933 1
128 933 1
129 933 1
133 933 1
136 933 1
1 934 1
2 934 1
4 934 1
9 934 1
11 934 1
12 934 1
13 934 1
14 934 1
16 934 1
17 934 1
18 934 1
21 934 1
23 934 1
25 934 1
27 934 1
30 934 1
33 934 1
34 934 1
36 934 1
37 934 1
41 934 1
44 934 1
45 934 1
48 934 1
49 934 1
50 934 1
53 934 1
54 934 1
55 934 1
63 934 1
64 934 1
66 934 1
67 934 1
71 934 1
72 934 1
74 934 1
78 934 1
80 934 1
87 934 1
88 934 1
90 934 1
93 934 1
94 934 1
95 934 1
97 934 1
100 934 1
101 934 1
102 934 1
103 934 1
106 934 1
110 934 1
111 934 1
113 934 1
116 934 1
119 934 1
120 934 1
123 934 1
125 934 1
128 934 1
134 934 1
1 935 1
2 935 1
3 935 1
38 935 1
42 935 1
46 935 1
47 935 1
48 935 1
49 935 1
50 935 1
51 935 1
53 935 1
54 935 1
55 935 1
57 935 1
58 935 1
59 935 1
60 935 1
62 935 1
63 935 1
65 935 1
70 935 1
73 935 1
74 935 1
75 935 1
76 935 1
77 935 1
79 935 1
84 935 1
86 935 1
87 935 1
88 935 1
89 935 1
90 935 1
92 935 1
94 935 1
100 935 1
101 935 1
106 935 1
108 935 1
109 935 1
110 935 1
113 935 1
114 935 1
117 935 1
118 935 1
119 935 1
120 935 1
121 935 1
122 935 1
125 935 1
126 935 1
127 935 1
128 935 1
130 935 1
131 935 1
132 935 1
134 935 1
135 935 1
136 935 1
1 936 1
2 936 1
9 936 1
11 936 1
12 936 1
13 936 1
14 936 1
16 936 1
17 936 1
18 936 1
21 936 1
23 936 1
25 936 1
27 936 1
30 936 1
33 936 1
38 936 1
41 936 1
42 936 1
44 936 1
45 936 1
48 936 1
51 936 1
54 936 1
55 936 1
56 936 1
57 936 1
58 936 1
61 936 1
62 936 1
63 936 1
64 936 1
65 936 1
67 936 1
68 936 1
69 936 1
71 936 1
75 936 1
76 936 1
77 936 1
79 936 1
80 936 1
83 936 1
86 936 1
88 936 1
89 936 1
90 936 1
92 936 1
95 936 1
96 936 1
97 936 1
98 936 1
99 936 1
102 936 1
103 936 1
105 936 1
106 936 1
108 936 1
109 936 1
119 936 1
122 936 1
123 936 1
124 936 1
127 936 1
128 936 1
130 936 1
131 936 1
134 936 1
135 936 1
136 936 1
1 937 1
2 937 1
3 937 1
4 937 1
36 937 1
37 937 1
38 937 1
39 937 1
41 937 1
42 937 1
43 937 1
44 937 1
47 937 1
48 937 1
49 937 1
50 937 1
53 937 1
56 937 1
57 937 1
60 937 1
62 937 1
63 937 1
64 937 1
65 937 1
66 937 1
68 937 1
69 937 1
71 937 1
76 937 1
77 937 1
79 937 1
80 937 1
82 937 1
84 937 1
85 937 1
86 937 1
91 937 1
94 937 1
95 937 1
96 937 1
99 937 1
102 937 1
103 937 1
106 937 1
108 937 1
109 937 1
111 937 1
112 937 1
113 937 1
114 937 1
115 937 1
116 937 1
118 937 1
120 937 1
121 937 1
122 937 1
125 937 1
128 937 1
129 937 1
131 937 1
133 937 1
134 937 1
135 937 1
136 937 1
1 938 1
2 938 1
3 938 1
4 938 1
9 938 1
11 938 1
12 938 1
13 938 1
14 938 1
16 938 1
17 938 1
18 938 1
21 938 1
23 938 1
25 938 1
27 938 1
30 938 1
33 938 1
34 938 1
36 938 1
43 938 1
46 938 1
47 938 1
48 938 1
51 938 1
53 938 1
54 938 1
55 938 1
57 938 1
59 938 1
62 938 1
66 938 1
67 938 1
69 938 1
72 938 1
73 938 1
74 938 1
75 938 1
78 938 1
79 938 1
80 938 1
81 938 1
84 938 1
86 938 1
90 938 1
92 938 1
93 938 1
94 938 1
99 938 1
102 938 1
104 938 1
106 938 1
109 938 1
111 938 1
112 938 1
113 938 1
116 938 1
118 938 1
123 938 1
124 938 1
126 938 1
127 938 1
130 938 1
132 938 1
136 938 1
1 939 1
38 939 1
39 939 1
41 939 1
44 939 1
46 939 1
51 939 1
52 939 1
53 939 1
55 939 1
57 939 1
59 939 1
60 939 1
63 939 1
64 939 1
66 939 1
67 939 1
70 939 1
72 939 1
73 939 1
75 939 1
76 939 1
77 939 1
78 939 1
82 939 1
87 939 1
88 939 1
90 939 1
91 939 1
92 939 1
94 939 1
95 939 1
96 939 1
97 939 1
99 939 1
100 939 1
101 939 1
103 939 1
104 939 1
106 939 1
107 939 1
109 939 1
112 939 1
116 939 1
119 939 1
121 939 1
122 939 1
129 939 1
130 939 1
131 939 1
132 939 1
135 939 1
3 940 1
9 940 1
11 940 1
12 940 1
13 940 1
14 940 1
16 940 1
17 940 1
18 940 1
21 940 1
23 940 1
25 940 1
27 940 1
30 940 1
33 940 1
34 940 1
36 940 1
38 940 1
40 940 1
41 940 1
42 940 1
43 940 1
45 940 1
46 940 1
49 940 1
52 940 1
53 940 1
54 940 1
55 940 1
58 940 1
60 940 1
63 940 1
69 940 1
73 940 1
75 940 1
78 940 1
79 940 1
80 940 1
82 940 1
83 940 1
85 940 1
87 940 1
89 940 1
90 940 1
92 940 1
93 940 1
96 940 1
103 940 1
104 940 1
105 940 1
106 940 1
108 940 1
109 940 1
111 940 1
112 940 1
113 940 1
114 940 1
116 940 1
119 940 1
121 940 1
123 940 1
124 940 1
128 940 1
129 940 1
130 940 1
132 940 1
134 940 1
135 940 1
34 941 1
37 941 1
38 941 1
39 941 1
44 941 1
47 941 1
50 941 1
53 941 1
55 941 1
56 941 1
57 941 1
59 941 1
62 941 1
64 941 1
66 941 1
68 941 1
69 941 1
70 941 1
71 941 1
72 941 1
75 941 1
79 941 1
80 941 1
82 941 1
83 941 1
85 941 1
86 941 1
87 941 1
89 941 1
91 941 1
92 941 1
93 941 1
96 941 1
97 941 1
106 941 1
108 941 1
109 941 1
111 941 1
114 941 1
115 941 1
118 941 1
119 941 1
120 941 1
123 941 1
124 941 1
127 941 1
129 941 1
130 941 1
133 941 1
135 941 1
136 941 1
4 942 1
9 942 1
11 942 1
12 942 1
13 942 1
14 942 1
16 942 1
17 942 1
18 942 1
21 942 1
23 942 1
25 942 1
27 942 1
30 942 1
33 942 1
37 942 1
39 942 1
40 942 1
41 942 1
42 942 1
44 942 1
46 942 1
50 942 1
53 942 1
54 942 1
56 942 1
65 942 1
66 942 1
67 942 1
70 942 1
72 942 1
73 942 1
76 942 1
78 942 1
79 942 1
80 942 1
81 942 1
84 942 1
85 942 1
87 942 1
88 942 1
89 942 1
93 942 1
94 942 1
95 942 1
96 942 1
100 942 1
102 942 1
103 942 1
104 942 1
106 942 1
110 942 1
113 942 1
114 942 1
115 942 1
117 942 1
118 942 1
120 942 1
121 942 1
122 942 1
123 942 1
124 942 1
125 942 1
126 942 1
127 942 1
132 942 1
134 942 1
135 942 1
2 943 1
3 943 1
34 943 1
38 943 1
39 943 1
43 943 1
44 943 1
46 943 1
47 943 1
49 943 1
51 943 1
52 943 1
56 943 1
60 943 1
61 943 1
64 943 1
65 943 1
69 943 1
70 943 1
71 943 1
72 943 1
73 943 1
74 943 1
77 943 1
78 943 1
82 943 1
83 943 1
84 943 1
87 943 1
89 943 1
90 943 1
92 943 1
93 943 1
94 943 1
98 943 1
99 943 1
100 943 1
101 943 1
102 943 1
105 943 1
106 943 1
108 943 1
109 943 1
119 943 1
127 943 1
130 943 1
131 943 1
132 943 1
134 943 1
136 943 1
1 944 1
2 944 1
4 944 1
9 944 1
11 944 1
12 944 1
13 944 1
14 944 1
16 944 1
17 944 1
18 944 1
21 944 1
23 944 1
25 944 1
27 944 1
30 944 1
33 944 1
36 944 1
38 944 1
40 944 1
41 944 1
42 944 1
46 944 1
52 944 1
53 944 1
54 944 1
59 944 1
60 944 1
61 944 1
65 944 1
66 944 1
68 944 1
69 944 1
70 944 1
71 944 1
74 944 1
76 944 1
78 944 1
79 944 1
82 944 1
83 944 1
84 944 1
86 944 1
87 944 1
88 944 1
89 944 1
90 944 1
91 944 1
95 944 1
96 944 1
98 944 1
101 944 1
103 944 1
104 944 1
110 944 1
111 944 1
112 944 1
114 944 1
117 944 1
119 944 1
121 944 1
122 944 1
123 944 1
124 944 1
125 944 1
126 944 1
129 944 1
130 944 1
131 944 1
135 944 1
1 945 1
2 945 1
4 945 1
36 945 1
37 945 1
38 945 1
40 945 1
41 945 1
42 945 1
43 945 1
45 945 1
46 945 1
47 945 1
48 945 1
50 945 1
51 945 1
53 945 1
55 945 1
59 945 1
61 945 1
64 945 1
65 945 1
66 945 1
70 945 1
73 945 1
74 945 1
76 945 1
78 945 1
79 945 1
80 945 1
81 945 1
82 945 1
84 945 1
85 945 1
87 945 1
89 945 1
93 945 1
94 945 1
95 945 1
98 945 1
100 945 1
101 945 1
103 945 1
104 945 1
105 945 1
106 945 1
108 945 1
112 945 1
113 945 1
114 945 1
118 945 1
121 945 1
125 945 1
126 945 1
127 945 1
128 945 1
129 945 1
136 945 1
1 946 1
9 946 1
11 946 1
12 946 1
13 946 1
14 946 1
16 946 1
17 946 1
18 946 1
21 946 1
23 946 1
25 946 1
27 946 1
30 946 1
33 946 1
34 946 1
36 946 1
38 946 1
40 946 1
41 946 1
43 946 1
46 946 1
48 946 1
49 946 1
52 946 1
53 946 1
55 946 1
57 946 1
58 946 1
60 946 1
61 946 1
63 946 1
64 946 1
67 946 1
69 946 1
71 946 1
74 946 1
75 946 1
76 946 1
81 946 1
84 946 1
85 946 1
86 946 1
88 946 1
89 946 1
90 946 1
91 946 1
93 946 1
97 946 1
99 946 1
102 946 1
108 946 1
111 946 1
115 946 1
120 946 1
121 946 1
122 946 1
123 946 1
124 946 1
127 946 1
128 946 1
129 946 1
136 946 1
2 947 1
3 947 1
36 947 1
37 947 1
38 947 1
39 947 1
41 947 1
42 947 1
43 947 1
44 947 1
46 947 1
48 947 1
49 947 1
51 947 1
53 947 1
58 947 1
60 947 1
61 947 1
64 947 1
66 947 1
67 947 1
68 947 1
73 947 1
76 947 1
77 947 1
80 947 1
81 947 1
83 947 1
84 947 1
87 947 1
91 947 1
92 947 1
96 947 1
98 947 1
99 947 1
102 947 1
103 947 1
106 947 1
107 947 1
109 947 1
111 947 1
113 947 1
114 947 1
116 947 1
118 947 1
119 947 1
123 947 1
124 947 1
125 947 1
127 947 1
128 947 1
129 947 1
130 947 1
132 947 1
133 947 1
134 947 1
1 948 1
2 948 1
4 948 1
9 948 1
11 948 1
12 948 1
13 948 1
14 948 1
16 948 1
17 948 1
18 948 1
21 948 1
23 948 1
25 948 1
27 948 1
30 948 1
33 948 1
41 948 1
44 948 1
45 948 1
46 948 1
47 948 1
50 948 1
51 948 1
53 948 1
55 948 1
56 948 1
57 948 1
58 948 1
60 948 1
61 948 1
64 948 1
65 948 1
67 948 1
69 948 1
70 948 1
74 948 1
75 948 1
76 948 1
77 948 1
78 948 1
81 948 1
82 948 1
83 948 1
84 948 1
85 948 1
86 948 1
89 948 1
92 948 1
98 948 1
101 948 1
102 948 1
103 948 1
104 948 1
106 948 1
107 948 1
108 948 1
110 948 1
111 948 1
112 948 1
114 948 1
118 948 1
119 948 1
121 948 1
122 948 1
123 948 1
125 948 1
126 948 1
127 948 1
128 948 1
132 948 1
134 948 1
136 948 1
1 949 1
2 949 1
3 949 1
34 949 1
40 949 1
42 949 1
43 949 1
44 949 1
49 949 1
51 949 1
52 949 1
54 949 1
55 949 1
56 949 1
57 949 1
58 949 1
59 949 1
63 949 1
64 949 1
66 949 1
67 949 1
68 949 1
69 949 1
73 949 1
78 949 1
81 949 1
83 949 1
85 949 1
91 949 1
93 949 1
94 949 1
95 949 1
97 949 1
99 949 1
101 949 1
102 949 1
103 949 1
107 949 1
109 949 1
111 949 1
113 949 1
115 949 1
117 949 1
118 949 1
119 949 1
122 949 1
125 949 1
127 949 1
130 949 1
131 949 1
136 949 1
1 950 1
2 950 1
3 950 1
9 950 1
11 950 1
12 950 1
13 950 1
14 950 1
16 950 1
17 950 1
18 950 1
21 950 1
23 950 1
25 950 1
27 950 1
30 950 1
33 950 1
36 950 1
37 950 1
38 950 1
39 950 1
40 950 1
41 950 1
43 950 1
44 950 1
46 950 1
47 950 1
49 950 1
55 950 1
59 950 1
62 950 1
64 950 1
66 950 1
67 950 1
69 950 1
70 950 1
74 950 1
76 950 1
77 950 1
78 950 1
80 950 1
82 950 1
84 950 1
90 950 1
95 950 1
97 950 1
98 950 1
100 950 1
102 950 1
105 950 1
108 950 1
109 950 1
114 950 1
115 950 1
116 950 1
123 950 1
124 950 1
126 950 1
127 950 1
128 950 1
129 950 1
130 950 1
131 950 1
133 950 1
134 950 1
135 950 1
136 950 1
1 951 1
3 951 1
34 951 1
36 951 1
37 951 1
38 951 1
39 951 1
43 951 1
45 951 1
47 951 1
50 951 1
51 951 1
52 951 1
55 951 1
56 951 1
57 951 1
60 951 1
65 951 1
66 951 1
67 951 1
69 951 1
70 951 1
74 951 1
76 951 1
79 951 1
80 951 1
88 951 1
91 951 1
93 951 1
95 951 1
96 951 1
97 951 1
101 951 1
103 951 1
105 951 1
106 951 1
112 951 1
114 951 1
116 951 1
118 951 1
119 951 1
121 951 1
122 951 1
123 951 1
128 951 1
129 951 1
133 951 1
134 951 1
136 951 1
2 952 1
3 952 1
4 952 1
9 952 1
11 952 1
12 952 1
13 952 1
14 952 1
16 952 1
17 952 1
18 952 1
21 952 1
23 952 1
25 952 1
27 952 1
30 952 1
33 952 1
34 952 1
36 952 1
39 952 1
40 952 1
43 952 1
44 952 1
45 952 1
46 952 1
47 952 1
49 952 1
51 952 1
52 952 1
55 952 1
56 952 1
60 952 1
64 952 1
66 952 1
70 952 1
71 952 1
72 952 1
73 952 1
74 952 1
75 952 1
77 952 1
78 952 1
79 952 1
81 952 1
83 952 1
87 952 1
95 952 1
99 952 1
100 952 1
101 952 1
103 952 1
107 952 1
108 952 1
109 952 1
110 952 1
111 952 1
115 952 1
116 952 1
118 952 1
119 952 1
120 952 1
121 952 1
124 952 1
125 952 1
126 952 1
127 952 1
128 952 1
129 952 1
1 953 1
37 953 1
38 953 1
45 953 1
52 953 1
53 953 1
54 953 1
55 953 1
56 953 1
57 953 1
60 953 1
61 953 1
62 953 1
64 953 1
65 953 1
67 953 1
69 953 1
72 953 1
75 953 1
76 953 1
77 953 1
78 953 1
80 953 1
81 953 1
82 953 1
86 953 1
87 953 1
88 953 1
89 953 1
91 953 1
95 953 1
96 953 1
98 953 1
99 953 1
103 953 1
106 953 1
108 953 1
109 953 1
111 953 1
117 953 1
118 953 1
119 953 1
120 953 1
121 953 1
122 953 1
124 953 1
126 953 1
127 953 1
128 953 1
130 953 1
133 953 1
135 953 1
3 954 1
9 954 1
11 954 1
12 954 1
13 954 1
14 954 1
16 954 1
17 954 1
18 954 1
21 954 1
23 954 1
25 954 1
27 954 1
30 954 1
33 954 1
34 954 1
36 954 1
38 954 1
39 954 1
41 954 1
42 954 1
43 954 1
45 954 1
46 954 1
47 954 1
50 954 1
51 954 1
53 954 1
55 954 1
57 954 1
58 954 1
59 954 1
60 954 1
62 954 1
64 954 1
66 954 1
68 954 1
72 954 1
73 954 1
75 954 1
76 954 1
78 954 1
80 954 1
81 954 1
82 954 1
83 954 1
85 954 1
87 954 1
88 954 1
89 954 1
91 954 1
92 954 1
95 954 1
98 954 1
101 954 1
102 954 1
103 954 1
106 954 1
108 954 1
110 954 1
111 954 1
113 954 1
114 954 1
116 954 1
117 954 1
120 954 1
121 954 1
122 954 1
123 954 1
124 954 1
125 954 1
126 954 1
129 954 1
131 954 1
3 955 1
4 955 1
34 955 1
36 955 1
37 955 1
39 955 1
40 955 1
43 955 1
45 955 1
47 955 1
48 955 1
49 955 1
51 955 1
54 955 1
58 955 1
59 955 1
60 955 1
61 955 1
62 955 1
65 955 1
67 955 1
70 955 1
71 955 1
72 955 1
76 955 1
78 955 1
83 955 1
84 955 1
86 955 1
89 955 1
93 955 1
95 955 1
96 955 1
97 955 1
98 955 1
101 955 1
102 955 1
104 955 1
105 955 1
106 955 1
110 955 1
112 955 1
113 955 1
114 955 1
116 955 1
121 955 1
122 955 1
124 955 1
129 955 1
132 955 1
2 956 1
3 956 1
9 956 1
11 956 1
12 956 1
13 956 1
14 956 1
16 956 1
17 956 1
18 956 1
21 956 1
23 956 1
25 956 1
27 956 1
30 956 1
33 956 1
34 956 1
38 956 1
39 956 1
40 956 1
42 956 1
43 956 1
45 956 1
46 956 1
47 956 1
48 956 1
50 956 1
51 956 1
52 956 1
53 956 1
55 956 1
57 956 1
58 956 1
59 956 1
60 956 1
61 956 1
68 956 1
69 956 1
70 956 1
72 956 1
74 956 1
75 956 1
76 956 1
77 956 1
78 956 1
79 956 1
82 956 1
83 956 1
84 956 1
85 956 1
86 956 1
87 956 1
88 956 1
93 956 1
100 956 1
104 956 1
105 956 1
106 956 1
107 956 1
109 956 1
111 956 1
112 956 1
113 956 1
116 956 1
119 956 1
120 956 1
123 956 1
125 956 1
127 956 1
132 956 1
1 957 1
38 957 1
41 957 1
43 957 1
44 957 1
46 957 1
51 957 1
53 957 1
54 957 1
57 957 1
58 957 1
59 957 1
60 957 1
61 957 1
63 957 1
64 957 1
66 957 1
68 957 1
69 957 1
73 957 1
76 957 1
79 957 1
80 957 1
81 957 1
82 957 1
83 957 1
84 957 1
87 957 1
88 957 1
89 957 1
92 957 1
95 957 1
97 957 1
101 957 1
103 957 1
104 957 1
106 957 1
107 957 1
108 957 1
109 957 1
110 957 1
113 957 1
118 957 1
122 957 1
125 957 1
126 957 1
127 957 1
130 957 1
131 957 1
132 957 1
133 957 1
9 958 1
11 958 1
12 958 1
13 958 1
14 958 1
16 958 1
17 958 1
18 958 1
21 958 1
23 958 1
25 958 1
27 958 1
30 958 1
33 958 1
37 958 1
42 958 1
43 958 1
45 958 1
46 958 1
50 958 1
53 958 1
57 958 1
59 958 1
62 958 1
64 958 1
66 958 1
67 958 1
69 958 1
70 958 1
74 958 1
75 958 1
76 958 1
78 958 1
81 958 1
83 958 1
86 958 1
88 958 1
89 958 1
92 958 1
94 958 1
98 958 1
100 958 1
101 958 1
104 958 1
105 958 1
107 958 1
108 958 1
110 958 1
112 958 1
113 958 1
117 958 1
119 958 1
120 958 1
123 958 1
129 958 1
130 958 1
131 958 1
132 958 1
135 958 1
2 959 1
4 959 1
36 959 1
41 959 1
43 959 1
47 959 1
56 959 1
58 959 1
59 959 1
60 959 1
61 959 1
66 959 1
67 959 1
69 959 1
70 959 1
76 959 1
77 959 1
80 959 1
81 959 1
84 959 1
85 959 1
86 959 1
87 959 1
90 959 1
97 959 1
98 959 1
99 959 1
101 959 1
102 959 1
104 959 1
109 959 1
110 959 1
113 959 1
114 959 1
117 959 1
124 959 1
125 959 1
126 959 1
127 959 1
133 959 1
134 959 1
135 959 1
136 959 1
1 960 1
3 960 1
9 960 1
11 960 1
12 960 1
13 960 1
14 960 1
16 960 1
17 960 1
18 960 1
21 960 1
23 960 1
25 960 1
27 960 1
30 960 1
33 960 1
36 960 1
39 960 1
40 960 1
41 960 1
44 960 1
45 960 1
47 960 1
48 960 1
51 960 1
52 960 1
53 960 1
54 960 1
56 960 1
57 960 1
58 960 1
64 960 1
65 960 1
66 960 1
72 960 1
74 960 1
75 960 1
76 960 1
77 960 1
80 960 1
81 960 1
82 960 1
84 960 1
86 960 1
89 960 1
92 960 1
97 960 1
99 960 1
100 960 1
101 960 1
102 960 1
103 960 1
106 960 1
107 960 1
109 960 1
112 960 1
118 960 1
121 960 1
124 960 1
125 960 1
127 960 1
128 960 1
129 960 1
131 960 1
135 960 1
1 962 1
3 962 1
9 962 1
11 962 1
12 962 1
13 962 1
14 962 1
16 962 1
17 962 1
18 962 1
21 962 1
23 962 1
25 962 1
27 962 1
30 962 1
33 962 1
37 962 1
40 962 1
43 962 1
51 962 1
53 962 1
56 962 1
64 962 1
65 962 1
67 962 1
68 962 1
74 962 1
75 962 1
77 962 1
81 962 1
82 962 1
87 962 1
90 962 1
93 962 1
98 962 1
99 962 1
100 962 1
102 962 1
103 962 1
104 962 1
105 962 1
108 962 1
109 962 1
114 962 1
118 962 1
119 962 1
121 962 1
123 962 1
124 962 1
128 962 1
130 962 1
131 962 1
136 962 1
1 963 1
4 963 1
36 963 1
38 963 1
40 963 1
41 963 1
42 963 1
44 963 1
45 963 1
48 963 1
52 963 1
55 963 1
56 963 1
58 963 1
59 963 1
60 963 1
62 963 1
64 963 1
68 963 1
69 963 1
72 963 1
76 963 1
78 963 1
79 963 1
83 963 1
84 963 1
86 963 1
88 963 1
89 963 1
90 963 1
91 963 1
94 963 1
96 963 1
98 963 1
99 963 1
101 963 1
102 963 1
106 963 1
107 963 1
110 963 1
111 963 1
112 963 1
114 963 1
115 963 1
116 963 1
117 963 1
118 963 1
120 963 1
122 963 1
126 963 1
129 963 1
130 963 1
131 963 1
132 963 1
133 963 1
135 963 1
136 963 1
1 964 1
3 964 1
9 964 1
11 964 1
12 964 1
13 964 1
14 964 1
16 964 1
17 964 1
18 964 1
21 964 1
23 964 1
25 964 1
27 964 1
30 964 1
33 964 1
34 964 1
37 964 1
39 964 1
44 964 1
45 964 1
50 964 1
53 964 1
54 964 1
55 964 1
56 964 1
57 964 1
58 964 1
59 964 1
60 964 1
61 964 1
62 964 1
63 964 1
64 964 1
65 964 1
66 964 1
67 964 1
68 964 1
69 964 1
74 964 1
76 964 1
77 964 1
78 964 1
81 964 1
84 964 1
85 964 1
86 964 1
87 964 1
88 964 1
93 964 1
95 964 1
96 964 1
97 964 1
100 964 1
102 964 1
103 964 1
106 964 1
107 964 1
109 964 1
110 964 1
111 964 1
113 964 1
114 964 1
118 964 1
119 964 1
122 964 1
124 964 1
125 964 1
126 964 1
128 964 1
133 964 1
136 964 1
1 965 1
3 965 1
34 965 1
39 965 1
40 965 1
41 965 1
43 965 1
44 965 1
46 965 1
51 965 1
54 965 1
55 965 1
59 965 1
60 965 1
65 965 1
66 965 1
69 965 1
72 965 1
74 965 1
75 965 1
76 965 1
77 965 1
78 965 1
79 965 1
80 965 1
88 965 1
89 965 1
90 965 1
93 965 1
94 965 1
96 965 1
98 965 1
99 965 1
100 965 1
101 965 1
102 965 1
104 965 1
105 965 1
108 965 1
110 965 1
112 965 1
115 965 1
117 965 1
118 965 1
123 965 1
128 965 1
131 965 1
134 965 1
135 965 1
136 965 1
1 966 1
2 966 1
3 966 1
9 966 1
11 966 1
12 966 1
13 966 1
14 966 1
16 966 1
17 966 1
18 966 1
21 966 1
23 966 1
25 966 1
27 966 1
30 966 1
33 966 1
37 966 1
38 966 1
41 966 1
42 966 1
45 966 1
52 966 1
53 966 1
54 966 1
55 966 1
57 966 1
64 966 1
65 966 1
66 966 1
67 966 1
71 966 1
73 966 1
76 966 1
77 966 1
78 966 1
84 966 1
88 966 1
91 966 1
92 966 1
93 966 1
94 966 1
95 966 1
98 966 1
99 966 1
103 966 1
110 966 1
113 966 1
115 966 1
116 966 1
119 966 1
120 966 1
121 966 1
129 966 1
131 966 1
132 966 1
134 966 1
135 966 1
136 966 1
4 967 1
36 967 1
37 967 1
38 967 1
40 967 1
41 967 1
44 967 1
46 967 1
47 967 1
50 967 1
57 967 1
58 967 1
59 967 1
60 967 1
61 967 1
62 967 1
63 967 1
65 967 1
67 967 1
70 967 1
71 967 1
74 967 1
75 967 1
77 967 1
78 967 1
83 967 1
85 967 1
87 967 1
88 967 1
94 967 1
96 967 1
99 967 1
101 967 1
102 967 1
103 967 1
104 967 1
105 967 1
108 967 1
110 967 1
111 967 1
114 967 1
115 967 1
116 967 1
118 967 1
119 967 1
126 967 1
127 967 1
128 967 1
130 967 1
135 967 1
136 967 1
1 968 1
4 968 1
9 968 1
11 968 1
12 968 1
13 968 1
14 968 1
16 968 1
17 968 1
18 968 1
21 968 1
23 968 1
25 968 1
27 968 1
30 968 1
33 968 1
34 968 1
37 968 1
39 968 1
40 968 1
43 968 1
44 968 1
45 968 1
49 968 1
50 968 1
54 968 1
59 968 1
60 968 1
62 968 1
64 968 1
65 968 1
68 968 1
70 968 1
71 968 1
73 968 1
75 968 1
77 968 1
81 968 1
82 968 1
83 968 1
84 968 1
87 968 1
89 968 1
91 968 1
94 968 1
95 968 1
96 968 1
97 968 1
99 968 1
100 968 1
102 968 1
103 968 1
104 968 1
105 968 1
106 968 1
108 968 1
113 968 1
115 968 1
121 968 1
127 968 1
128 968 1
129 968 1
130 968 1
131 968 1
132 968 1
133 968 1
1 969 1
2 969 1
3 969 1
34 969 1
37 969 1
43 969 1
47 969 1
48 969 1
52 969 1
53 969 1
56 969 1
57 969 1
59 969 1
63 969 1
64 969 1
65 969 1
67 969 1
68 969 1
70 969 1
71 969 1
73 969 1
76 969 1
78 969 1
79 969 1
80 969 1
83 969 1
84 969 1
85 969 1
89 969 1
92 969 1
94 969 1
95 969 1
96 969 1
97 969 1
98 969 1
99 969 1
100 969 1
101 969 1
103 969 1
105 969 1
106 969 1
108 969 1
109 969 1
113 969 1
115 969 1
119 969 1
120 969 1
122 969 1
123 969 1
125 969 1
127 969 1
128 969 1
129 969 1
130 969 1
2 970 1
3 970 1
4 970 1
9 970 1
11 970 1
12 970 1
13 970 1
14 970 1
16 970 1
17 970 1
18 970 1
21 970 1
23 970 1
25 970 1
27 970 1
30 970 1
33 970 1
34 970 1
37 970 1
39 970 1
40 970 1
41 970 1
49 970 1
50 970 1
51 970 1
55 970 1
56 970 1
58 970 1
60 970 1
61 970 1
64 970 1
68 970 1
70 970 1
72 970 1
74 970 1
77 970 1
83 970 1
85 970 1
86 970 1
87 970 1
88 970 1
91 970 1
94 970 1
96 970 1
97 970 1
98 970 1
100 970 1
101 970 1
102 970 1
104 970 1
112 970 1
114 970 1
115 970 1
116 970 1
117 970 1
118 970 1
119 970 1
120 970 1
121 970 1
123 970 1
127 970 1
129 970 1
130 970 1
132 970 1
133 970 1
134 970 1
3 971 1
36 971 1
37 971 1
39 971 1
40 971 1
41 971 1
43 971 1
44 971 1
46 971 1
47 971 1
48 971 1
49 971 1
51 971 1
53 971 1
54 971 1
55 971 1
56 971 1
57 971 1
59 971 1
60 971 1
67 971 1
68 971 1
70 971 1
72 971 1
74 971 1
77 971 1
78 971 1
86 971 1
87 971 1
88 971 1
89 971 1
92 971 1
93 971 1
97 971 1
99 971 1
102 971 1
104 971 1
105 971 1
106 971 1
108 971 1
111 971 1
112 971 1
113 971 1
114 971 1
117 971 1
120 971 1
121 971 1
123 971 1
125 971 1
132 971 1
133 971 1
135 971 1
1 972 1
2 972 1
4 972 1
9 972 1
11 972 1
12 972 1
13 972 1
14 972 1
16 972 1
17 972 1
18 972 1
21 972 1
23 972 1
25 972 1
27 972 1
30 972 1
33 972 1
38 972 1
40 972 1
41 972 1
44 972 1
46 972 1
47 972 1
48 972 1
49 972 1
50 972 1
51 972 1
52 972 1
53 972 1
54 972 1
55 972 1
56 972 1
58 972 1
59 972 1
62 972 1
63 972 1
64 972 1
65 972 1
67 972 1
68 972 1
70 972 1
71 972 1
73 972 1
74 972 1
75 972 1
76 972 1
77 972 1
80 972 1
81 972 1
82 972 1
84 972 1
85 972 1
87 972 1
88 972 1
89 972 1
90 972 1
91 972 1
92 972 1
93 972 1
95 972 1
97 972 1
98 972 1
99 972 1
100 972 1
101 972 1
105 972 1
107 972 1
108 972 1
109 972 1
110 972 1
112 972 1
114 972 1
117 972 1
119 972 1
120 972 1
123 972 1
124 972 1
126 972 1
128 972 1
129 972 1
130 972 1
131 972 1
133 972 1
134 972 1
2 973 1
3 973 1
4 973 1
36 973 1
37 973 1
39 973 1
40 973 1
42 973 1
45 973 1
49 973 1
50 973 1
51 973 1
52 973 1
54 973 1
55 973 1
57 973 1
59 973 1
60 973 1
61 973 1
64 973 1
65 973 1
67 973 1
68 973 1
70 973 1
73 973 1
75 973 1
76 973 1
78 973 1
79 973 1
80 973 1
81 973 1
85 973 1
87 973 1
89 973 1
90 973 1
93 973 1
94 973 1
96 973 1
98 973 1
99 973 1
105 973 1
106 973 1
108 973 1
109 973 1
110 973 1
112 973 1
113 973 1
115 973 1
117 973 1
119 973 1
120 973 1
124 973 1
125 973 1
126 973 1
127 973 1
129 973 1
130 973 1
132 973 1
134 973 1
135 973 1
2 974 1
3 974 1
4 974 1
9 974 1
11 974 1
12 974 1
13 974 1
14 974 1
16 974 1
17 974 1
18 974 1
21 974 1
23 974 1
25 974 1
27 974 1
30 974 1
33 974 1
36 974 1
38 974 1
40 974 1
43 974 1
48 974 1
49 974 1
50 974 1
51 974 1
54 974 1
56 974 1
58 974 1
60 974 1
61 974 1
64 974 1
65 974 1
68 974 1
70 974 1
72 974 1
77 974 1
78 974 1
79 974 1
83 974 1
85 974 1
88 974 1
89 974 1
91 974 1
92 974 1
93 974 1
94 974 1
95 974 1
97 974 1
98 974 1
99 974 1
100 974 1
103 974 1
104 974 1
107 974 1
109 974 1
110 974 1
111 974 1
115 974 1
116 974 1
117 974 1
119 974 1
120 974 1
121 974 1
122 974 1
125 974 1
126 974 1
128 974 1
129 974 1
130 974 1
133 974 1
135 974 1
4 975 1
34 975 1
37 975 1
38 975 1
39 975 1
40 975 1
41 975 1
45 975 1
49 975 1
50 975 1
51 975 1
52 975 1
55 975 1
56 975 1
57 975 1
58 975 1
63 975 1
64 975 1
65 975 1
68 975 1
71 975 1
72 975 1
73 975 1
74 975 1
76 975 1
77 975 1
82 975 1
85 975 1
86 975 1
94 975 1
98 975 1
102 975 1
106 975 1
107 975 1
108 975 1
110 975 1
111 975 1
112 975 1
119 975 1
122 975 1
124 975 1
125 975 1
126 975 1
127 975 1
132 975 1
133 975 1
135 975 1
1 976 1
3 976 1
9 976 1
11 976 1
12 976 1
13 976 1
14 976 1
16 976 1
17 976 1
18 976 1
21 976 1
23 976 1
25 976 1
27 976 1
30 976 1
33 976 1
34 976 1
40 976 1
42 976 1
43 976 1
45 976 1
46 976 1
48 976 1
49 976 1
51 976 1
52 976 1
53 976 1
57 976 1
59 976 1
61 976 1
62 976 1
63 976 1
65 976 1
67 976 1
68 976 1
69 976 1
70 976 1
71 976 1
72 976 1
73 976 1
74 976 1
78 976 1
81 976 1
82 976 1
83 976 1
85 976 1
87 976 1
91 976 1
93 976 1
97 976 1
98 976 1
101 976 1
104 976 1
106 976 1
108 976 1
109 976 1
111 976 1
113 976 1
116 976 1
117 976 1
120 976 1
121 976 1
122 976 1
123 976 1
124 976 1
127 976 1
130 976 1
131 976 1
132 976 1
133 976 1
134 976 1
1 977 1
4 977 1
34 977 1
37 977 1
42 977 1
48 977 1
49 977 1
51 977 1
54 977 1
55 977 1
56 977 1
57 977 1
58 977 1
59 977 1
60 977 1
63 977 1
64 977 1
66 977 1
68 977 1
73 977 1
74 977 1
76 977 1
78 977 1
79 977 1
84 977 1
86 977 1
88 977 1
89 977 1
90 977 1
94 977 1
95 977 1
100 977 1
101 977 1
104 977 1
107 977 1
110 977 1
111 977 1
114 977 1
115 977 1
116 977 1
119 977 1
121 977 1
122 977 1
123 977 1
126 977 1
128 977 1
129 977 1
130 977 1
131 977 1
134 977 1
135 977 1
136 977 1
1 978 1
9 978 1
11 978 1
12 978 1
13 978 1
14 978 1
16 978 1
17 978 1
18 978 1
21 978 1
23 978 1
25 978 1
27 978 1
30 978 1
33 978 1
34 978 1
37 978 1
43 978 1
44 978 1
45 978 1
47 978 1
48 978 1
49 978 1
50 978 1
53 978 1
54 978 1
55 978 1
56 978 1
58 978 1
59 978 1
60 978 1
61 978 1
63 978 1
64 978 1
69 978 1
70 978 1
71 978 1
72 978 1
74 978 1
76 978 1
77 978 1
78 978 1
81 978 1
84 978 1
85 978 1
86 978 1
88 978 1
93 978 1
94 978 1
95 978 1
98 978 1
99 978 1
100 978 1
103 978 1
104 978 1
106 978 1
109 978 1
110 978 1
111 978 1
114 978 1
116 978 1
117 978 1
119 978 1
120 978 1
123 978 1
124 978 1
127 978 1
128 978 1
133 978 1
135 978 1
136 978 1
1 979 1
2 979 1
3 979 1
34 979 1
40 979 1
47 979 1
48 979 1
54 979 1
56 979 1
57 979 1
58 979 1
61 979 1
64 979 1
65 979 1
66 979 1
68 979 1
70 979 1
72 979 1
73 979 1
74 979 1
75 979 1
77 979 1
79 979 1
80 979 1
88 979 1
93 979 1
94 979 1
96 979 1
99 979 1
101 979 1
102 979 1
103 979 1
106 979 1
108 979 1
111 979 1
114 979 1
116 979 1
119 979 1
123 979 1
126 979 1
129 979 1
131 979 1
133 979 1
135 979 1
136 979 1
2 980 1
9 980 1
11 980 1
12 980 1
13 980 1
14 980 1
16 980 1
17 980 1
18 980 1
21 980 1
23 980 1
25 980 1
27 980 1
30 980 1
33 980 1
36 980 1
40 980 1
51 980 1
52 980 1
54 980 1
57 980 1
59 980 1
60 980 1
61 980 1
63 980 1
65 980 1
67 980 1
71 980 1
72 980 1
75 980 1
77 980 1
78 980 1
80 980 1
84 980 1
91 980 1
92 980 1
94 980 1
95 980 1
101 980 1
103 980 1
105 980 1
107 980 1
108 980 1
109 980 1
110 980 1
111 980 1
112 980 1
115 980 1
116 980 1
117 980 1
118 980 1
119 980 1
120 980 1
123 980 1
124 980 1
125 980 1
126 980 1
127 980 1
128 980 1
132 980 1
133 980 1
134 980 1
2 981 1
4 981 1
34 981 1
36 981 1
37 981 1
38 981 1
41 981 1
43 981 1
46 981 1
47 981 1
52 981 1
53 981 1
56 981 1
59 981 1
63 981 1
64 981 1
65 981 1
67 981 1
68 981 1
69 981 1
70 981 1
71 981 1
72 981 1
73 981 1
76 981 1
77 981 1
80 981 1
81 981 1
83 981 1
84 981 1
88 981 1
91 981 1
92 981 1
93 981 1
95 981 1
96 981 1
98 981 1
100 981 1
103 981 1
104 981 1
105 981 1
107 981 1
109 981 1
110 981 1
113 981 1
114 981 1
115 981 1
116 981 1
118 981 1
119 981 1
120 981 1
123 981 1
124 981 1
126 981 1
128 981 1
131 981 1
132 981 1
133 981 1
136 981 1
3 982 1
4 982 1
9 982 1
11 982 1
12 982 1
13 982 1
14 982 1
16 982 1
17 982 1
18 982 1
21 982 1
23 982 1
25 982 1
27 982 1
30 982 1
33 982 1
37 982 1
38 982 1
41 982 1
43 982 1
44 982 1
45 982 1
46 982 1
47 982 1
51 982 1
52 982 1
53 982 1
54 982 1
55 982 1
56 982 1
57 982 1
58 982 1
59 982 1
60 982 1
61 982 1
63 982 1
66 982 1
67 982 1
68 982 1
69 982 1
70 982 1
72 982 1
73 982 1
74 982 1
76 982 1
77 982 1
78 982 1
79 982 1
82 982 1
84 982 1
85 982 1
86 982 1
90 982 1
92 982 1
93 982 1
94 982 1
95 982 1
97 982 1
98 982 1
99 982 1
103 982 1
104 982 1
105 982 1
107 982 1
110 982 1
112 982 1
114 982 1
119 982 1
120 982 1
121 982 1
125 982 1
126 982 1
129 982 1
131 982 1
132 982 1
133 982 1
134 982 1
135 982 1
136 982 1
1 983 1
3 983 1
4 983 1
34 983 1
36 983 1
39 983 1
41 983 1
42 983 1
46 983 1
48 983 1
49 983 1
50 983 1
51 983 1
53 983 1
55 983 1
59 983 1
60 983 1
64 983 1
65 983 1
66 983 1
67 983 1
70 983 1
74 983 1
75 983 1
78 983 1
80 983 1
82 983 1
84 983 1
88 983 1
94 983 1
95 983 1
98 983 1
102 983 1
103 983 1
104 983 1
107 983 1
109 983 1
111 983 1
112 983 1
115 983 1
116 983 1
117 983 1
119 983 1
122 983 1
123 983 1
125 983 1
128 983 1
130 983 1
136 983 1
1 984 1
2 984 1
4 984 1
9 984 1
11 984 1
12 984 1
13 984 1
14 984 1
16 984 1
17 984 1
18 984 1
21 984 1
23 984 1
25 984 1
27 984 1
30 984 1
33 984 1
34 984 1
36 984 1
41 984 1
43 984 1
44 984 1
45 984 1
46 984 1
49 984 1
50 984 1
51 984 1
53 984 1
54 984 1
60 984 1
61 984 1
62 984 1
63 984 1
64 984 1
69 984 1
71 984 1
75 984 1
76 984 1
80 984 1
82 984 1
84 984 1
86 984 1
87 984 1
93 984 1
97 984 1
101 984 1
104 984 1
105 984 1
109 984 1
112 984 1
113 984 1
114 984 1
115 984 1
116 984 1
121 984 1
122 984 1
125 984 1
127 984 1
128 984 1
129 984 1
130 984 1
131 984 1
133 984 1
136 984 1
2 985 1
4 985 1
37 985 1
43 985 1
44 985 1
46 985 1
48 985 1
49 985 1
50 985 1
58 985 1
59 985 1
62 985 1
63 985 1
66 985 1
68 985 1
71 985 1
72 985 1
73 985 1
75 985 1
76 985 1
81 985 1
83 985 1
84 985 1
85 985 1
88 985 1
89 985 1
90 985 1
93 985 1
94 985 1
97 985 1
99 985 1
101 985 1
102 985 1
104 985 1
105 985 1
108 985 1
110 985 1
111 985 1
113 985 1
115 985 1
116 985 1
117 985 1
118 985 1
119 985 1
120 985 1
126 985 1
130 985 1
132 985 1
133 985 1
134 985 1
9 986 1
11 986 1
12 986 1
13 986 1
14 986 1
16 986 1
17 986 1
18 986 1
21 986 1
23 986 1
25 986 1
27 986 1
30 986 1
33 986 1
36 986 1
37 986 1
39 986 1
40 986 1
42 986 1
44 986 1
50 986 1
52 986 1
53 986 1
60 986 1
61 986 1
65 986 1
67 986 1
69 986 1
72 986 1
76 986 1
77 986 1
79 986 1
80 986 1
81 986 1
82 986 1
83 986 1
84 986 1
85 986 1
86 986 1
87 986 1
88 986 1
91 986 1
92 986 1
93 986 1
94 986 1
95 986 1
97 986 1
98 986 1
99 986 1
100 986 1
102 986 1
104 986 1
105 986 1
106 986 1
107 986 1
108 986 1
110 986 1
111 986 1
112 986 1
114 986 1
116 986 1
118 986 1
119 986 1
121 986 1
122 986 1
124 986 1
125 986 1
126 986 1
128 986 1
130 986 1
131 986 1
133 986 1
135 986 1
1 987 1
2 987 1
3 987 1
34 987 1
36 987 1
39 987 1
40 987 1
41 987 1
42 987 1
44 987 1
45 987 1
47 987 1
51 987 1
52 987 1
55 987 1
56 987 1
57 987 1
59 987 1
60 987 1
61 987 1
62 987 1
63 987 1
65 987 1
66 987 1
68 987 1
71 987 1
72 987 1
74 987 1
75 987 1
79 987 1
80 987 1
81 987 1
82 987 1
85 987 1
88 987 1
89 987 1
91 987 1
94 987 1
98 987 1
102 987 1
103 987 1
109 987 1
110 987 1
113 987 1
114 987 1
120 987 1
123 987 1
124 987 1
125 987 1
126 987 1
127 987 1
129 987 1
130 987 1
131 987 1
136 987 1
2 988 1
3 988 1
4 988 1
9 988 1
11 988 1
12 988 1
13 988 1
14 988 1
16 988 1
17 988 1
18 988 1
21 988 1
23 988 1
25 988 1
27 988 1
30 988 1
33 988 1
37 988 1
41 988 1
42 988 1
43 988 1
46 988 1
47 988 1
48 988 1
49 988 1
53 988 1
56 988 1
59 988 1
60 988 1
61 988 1
63 988 1
64 988 1
65 988 1
69 988 1
70 988 1
71 988 1
73 988 1
75 988 1
78 988 1
79 988 1
83 988 1
84 988 1
87 988 1
88 988 1
93 988 1
94 988 1
98 988 1
100 988 1
102 988 1
104 988 1
105 988 1
108 988 1
109 988 1
110 988 1
112 988 1
113 988 1
116 988 1
120 988 1
121 988 1
122 988 1
124 988 1
126 988 1
133 988 1
135 988 1
3 989 1
34 989 1
37 989 1
38 989 1
40 989 1
41 989 1
44 989 1
46 989 1
53 989 1
55 989 1
56 989 1
60 989 1
61 989 1
62 989 1
66 989 1
67 989 1
68 989 1
69 989 1
71 989 1
73 989 1
77 989 1
80 989 1
82 989 1
83 989 1
85 989 1
87 989 1
88 989 1
89 989 1
91 989 1
93 989 1
94 989 1
96 989 1
97 989 1
99 989 1
104 989 1
105 989 1
107 989 1
108 989 1
110 989 1
111 989 1
112 989 1
114 989 1
116 989 1
117 989 1
118 989 1
120 989 1
125 989 1
126 989 1
127 989 1
128 989 1
129 989 1
131 989 1
132 989 1
133 989 1
135 989 1
136 989 1
1 990 1
2 990 1
3 990 1
4 990 1
9 990 1
11 990 1
12 990 1
13 990 1
14 990 1
16 990 1
17 990 1
18 990 1
21 990 1
23 990 1
25 990 1
27 990 1
30 990 1
33 990 1
34 990 1
36 990 1
37 990 1
38 990 1
39 990 1
40 990 1
49 990 1
50 990 1
52 990 1
53 990 1
59 990 1
60 990 1
61 990 1
65 990 1
66 990 1
67 990 1
72 990 1
73 990 1
74 990 1
75 990 1
78 990 1
82 990 1
83 990 1
84 990 1
85 990 1
88 990 1
89 990 1
92 990 1
93 990 1
94 990 1
96 990 1
97 990 1
99 990 1
100 990 1
101 990 1
103 990 1
104 990 1
105 990 1
106 990 1
107 990 1
109 990 1
111 990 1
116 990 1
119 990 1
124 990 1
125 990 1
126 990 1
127 990 1
129 990 1
132 990 1
133 990 1
134 990 1
2 991 1
34 991 1
36 991 1
38 991 1
40 991 1
41 991 1
43 991 1
45 991 1
46 991 1
47 991 1
49 991 1
50 991 1
53 991 1
54 991 1
56 991 1
57 991 1
58 991 1
60 991 1
61 991 1
63 991 1
65 991 1
68 991 1
70 991 1
80 991 1
81 991 1
82 991 1
85 991 1
86 991 1
87 991 1
88 991 1
90 991 1
93 991 1
96 991 1
98 991 1
103 991 1
105 991 1
106 991 1
107 991 1
108 991 1
110 991 1
111 991 1
113 991 1
115 991 1
116 991 1
118 991 1
119 991 1
122 991 1
123 991 1
125 991 1
127 991 1
129 991 1
130 991 1
131 991 1
134 991 1
135 991 1
36 992 1
37 992 1
38 992 1
40 992 1
41 992 1
44 992 1
45 992 1
46 992 1
47 992 1
50 992 1
52 992 1
54 992 1
56 992 1
57 992 1
59 992 1
67 992 1
70 992 1
72 992 1
75 992 1
77 992 1
78 992 1
89 992 1
90 992 1
91 992 1
94 992 1
95 992 1
97 992 1
98 992 1
99 992 1
100 992 1
102 992 1
103 992 1
104 992 1
106 992 1
108 992 1
110 992 1
114 992 1
115 992 1
116 992 1
117 992 1
119 992 1
121 992 1
122 992 1
129 992 1
131 992 1
133 992 1
135 992 1
1 993 1
4 993 1
34 993 1
36 993 1
37 993 1
38 993 1
39 993 1
40 993 1
41 993 1
42 993 1
43 993 1
44 993 1
46 993 1
47 993 1
49 993 1
51 993 1
53 993 1
54 993 1
56 993 1
57 993 1
60 993 1
65 993 1
67 993 1
70 993 1
72 993 1
74 993 1
75 993 1
76 993 1
79 993 1
81 993 1
83 993 1
84 993 1
87 993 1
88 993 1
91 993 1
92 993 1
93 993 1
94 993 1
98 993 1
100 993 1
101 993 1
107 993 1
108 993 1
109 993 1
111 993 1
113 993 1
118 993 1
124 993 1
125 993 1
126 993 1
127 993 1
128 993 1
131 993 1
132 993 1
134 993 1
135 993 1
136 993 1
1 994 1
4 994 1
36 994 1
40 994 1
41 994 1
44 994 1
45 994 1
46 994 1
47 994 1
50 994 1
52 994 1
53 994 1
54 994 1
55 994 1
56 994 1
58 994 1
59 994 1
63 994 1
64 994 1
69 994 1
70 994 1
71 994 1
72 994 1
74 994 1
76 994 1
80 994 1
81 994 1
82 994 1
83 994 1
85 994 1
86 994 1
89 994 1
91 994 1
94 994 1
95 994 1
98 994 1
101 994 1
102 994 1
104 994 1
105 994 1
106 994 1
109 994 1
110 994 1
114 994 1
115 994 1
116 994 1
117 994 1
120 994 1
121 994 1
122 994 1
124 994 1
133 994 1
136 994 1
1 995 1
3 995 1
4 995 1
36 995 1
37 995 1
38 995 1
40 995 1
41 995 1
42 995 1
44 995 1
46 995 1
47 995 1
49 995 1
51 995 1
53 995 1
54 995 1
55 995 1
57 995 1
58 995 1
65 995 1
66 995 1
70 995 1
71 995 1
72 995 1
76 995 1
77 995 1
78 995 1
80 995 1
84 995 1
85 995 1
88 995 1
92 995 1
94 995 1
96 995 1
97 995 1
98 995 1
99 995 1
100 995 1
101 995 1
104 995 1
105 995 1
110 995 1
111 995 1
114 995 1
115 995 1
116 995 1
117 995 1
120 995 1
122 995 1
123 995 1
124 995 1
125 995 1
126 995 1
127 995 1
128 995 1
130 995 1
132 995 1
133 995 1
1 996 1
2 996 1
4 996 1
36 996 1
39 996 1
40 996 1
45 996 1
49 996 1
51 996 1
52 996 1
53 996 1
54 996 1
56 996 1
57 996 1
58 996 1
60 996 1
61 996 1
62 996 1
63 996 1
64 996 1
68 996 1
72 996 1
73 996 1
79 996 1
80 996 1
85 996 1
86 996 1
92 996 1
93 996 1
94 996 1
99 996 1
100 996 1
102 996 1
103 996 1
104 996 1
108 996 1
109 996 1
110 996 1
112 996 1
114 996 1
115 996 1
116 996 1
119 996 1
120 996 1
121 996 1
123 996 1
124 996 1
125 996 1
127 996 1
128 996 1
130 996 1
132 996 1
4 997 1
37 997 1
38 997 1
41 997 1
42 997 1
43 997 1
45 997 1
46 997 1
47 997 1
48 997 1
49 997 1
52 997 1
53 997 1
56 997 1
57 997 1
59 997 1
64 997 1
69 997 1
75 997 1
76 997 1
78 997 1
79 997 1
82 997 1
84 997 1
91 997 1
93 997 1
94 997 1
96 997 1
97 997 1
98 997 1
101 997 1
102 997 1
105 997 1
106 997 1
107 997 1
109 997 1
111 997 1
113 997 1
114 997 1
115 997 1
117 997 1
118 997 1
121 997 1
125 997 1
129 997 1
130 997 1
133 997 1
134 997 1
1 998 1
3 998 1
39 998 1
40 998 1
41 998 1
47 998 1
50 998 1
52 998 1
53 998 1
54 998 1
55 998 1
56 998 1
61 998 1
62 998 1
63 998 1
66 998 1
69 998 1
70 998 1
72 998 1
73 998 1
74 998 1
76 998 1
77 998 1
78 998 1
79 998 1
80 998 1
81 998 1
82 998 1
83 998 1
84 998 1
86 998 1
93 998 1
95 998 1
97 998 1
99 998 1
100 998 1
103 998 1
104 998 1
107 998 1
108 998 1
110 998 1
111 998 1
112 998 1
113 998 1
114 998 1
116 998 1
118 998 1
119 998 1
120 998 1
122 998 1
124 998 1
126 998 1
130 998 1
131 998 1
133 998 1
136 998 1
1 999 1
2 999 1
4 999 1
38 999 1
43 999 1
44 999 1
45 999 1
46 999 1
48 999 1
49 999 1
50 999 1
52 999 1
53 999 1
54 999 1
55 999 1
56 999 1
57 999 1
58 999 1
59 999 1
60 999 1
61 999 1
63 999 1
64 999 1
65 999 1
66 999 1
67 999 1
68 999 1
69 999 1
71 999 1
73 999 1
77 999 1
78 999 1
80 999 1
82 999 1
83 999 1
84 999 1
85 999 1
86 999 1
87 999 1
90 999 1
91 999 1
93 999 1
94 999 1
95 999 1
96 999 1
97 999 1
98 999 1
101 999 1
102 999 1
104 999 1
105 999 1
106 999 1
109 999 1
110 999 1
113 999 1
115 999 1
116 999 1
117 999 1
121 999 1
122 999 1
124 999 1
127 999 1
128 999 1
132 999 1
134 999 1
135 999 1
3 1000 1
34 1000 1
37 1000 1
38 1000 1
40 1000 1
41 1000 1
43 1000 1
44 1000 1
45 1000 1
46 1000 1
47 1000 1
51 1000 1
52 1000 1
55 1000 1
57 1000 1
58 1000 1
59 1000 1
61 1000 1
62 1000 1
64 1000 1
65 1000 1
66 1000 1
67 1000 1
68 1000 1
69 1000 1
73 1000 1
75 1000 1
77 1000 1
78 1000 1
79 1000 1
84 1000 1
86 1000 1
89 1000 1
93 1000 1
94 1000 1
97 1000 1
99 1000 1
100 1000 1
101 1000 1
103 1000 1
104 1000 1
105 1000 1
106 1000 1
107 1000 1
112 1000 1
113 1000 1
117 1000 1
118 1000 1
119 1000 1
123 1000 1
128 1000 1
129 1000 1
130 1000 1
133 1000 1
135 1000 1
1 1001 1
2 1001 1
4 1001 1
37 1001 1
41 1001 1
42 1001 1
43 1001 1
44 1001 1
48 1001 1
49 1001 1
52 1001 1
54 1001 1
55 1001 1
56 1001 1
57 1001 1
58 1001 1
63 1001 1
66 1001 1
67 1001 1
68 1001 1
70 1001 1
74 1001 1
75 1001 1
76 1001 1
78 1001 1
79 1001 1
80 1001 1
81 1001 1
82 1001 1
83 1001 1
84 1001 1
85 1001 1
86 1001 1
88 1001 1
91 1001 1
93 1001 1
94 1001 1
95 1001 1
96 1001 1
97 1001 1
101 1001 1
103 1001 1
104 1001 1
105 1001 1
106 1001 1
108 1001 1
109 1001 1
112 1001 1
116 1001 1
119 1001 1
120 1001 1
121 1001 1
122 1001 1
123 1001 1
125 1001 1
126 1001 1
127 1001 1
130 1001 1
131 1001 1
132 1001 1
136 1001 1
4 1002 1
34 1002 1
37 1002 1
38 1002 1
39 1002 1
40 1002 1
41 1002 1
45 1002 1
49 1002 1
50 1002 1
51 1002 1
52 1002 1
55 1002 1
56 1002 1
57 1002 1
58 1002 1
63 1002 1
64 1002 1
65 1002 1
68 1002 1
71 1002 1
72 1002 1
73 1002 1
74 1002 1
76 1002 1
77 1002 1
82 1002 1
85 1002 1
86 1002 1
94 1002 1
98 1002 1
102 1002 1
106 1002 1
107 1002 1
108 1002 1
110 1002 1
111 1002 1
112 1002 1
119 1002 1
122 1002 1
123 1002 1
124 1002 1
125 1002 1
126 1002 1
127 1002 1
132 1002 1
133 1002 1
135 1002 1
1 1003 1
3 1003 1
34 1003 1
37 1003 1
40 1003 1
43 1003 1
51 1003 1
54 1003 1
55 1003 1
56 1003 1
57 1003 1
58 1003 1
59 1003 1
62 1003 1
63 1003 1
64 1003 1
67 1003 1
71 1003 1
76 1003 1
77 1003 1
79 1003 1
81 1003 1
84 1003 1
85 1003 1
91 1003 1
92 1003 1
93 1003 1
94 1003 1
95 1003 1
96 1003 1
99 1003 1
101 1003 1
103 1003 1
105 1003 1
106 1003 1
111 1003 1
112 1003 1
113 1003 1
114 1003 1
116 1003 1
117 1003 1
118 1003 1
120 1003 1
122 1003 1
128 1003 1
129 1003 1
130 1003 1
135 1003 1
136 1003 1
1 1004 1
2 1004 1
3 1004 1
4 1004 1
34 1004 1
36 1004 1
38 1004 1
39 1004 1
40 1004 1
42 1004 1
43 1004 1
45 1004 1
46 1004 1
49 1004 1
52 1004 1
57 1004 1
60 1004 1
61 1004 1
62 1004 1
64 1004 1
65 1004 1
69 1004 1
70 1004 1
72 1004 1
73 1004 1
76 1004 1
81 1004 1
82 1004 1
84 1004 1
85 1004 1
86 1004 1
93 1004 1
96 1004 1
97 1004 1
98 1004 1
99 1004 1
103 1004 1
106 1004 1
108 1004 1
109 1004 1
110 1004 1
112 1004 1
113 1004 1
116 1004 1
117 1004 1
120 1004 1
122 1004 1
123 1004 1
124 1004 1
125 1004 1
126 1004 1
127 1004 1
130 1004 1
131 1004 1
133 1004 1
134 1004 1
135 1004 1
2 1005 1
4 1005 1
36 1005 1
41 1005 1
43 1005 1
47 1005 1
56 1005 1
58 1005 1
59 1005 1
60 1005 1
61 1005 1
66 1005 1
67 1005 1
69 1005 1
70 1005 1
76 1005 1
77 1005 1
80 1005 1
81 1005 1
84 1005 1
85 1005 1
86 1005 1
87 1005 1
90 1005 1
97 1005 1
98 1005 1
99 1005 1
101 1005 1
102 1005 1
104 1005 1
109 1005 1
113 1005 1
114 1005 1
117 1005 1
124 1005 1
125 1005 1
126 1005 1
127 1005 1
133 1005 1
134 1005 1
135 1005 1
136 1005 1
34 1006 1
38 1006 1
40 1006 1
42 1006 1
46 1006 1
49 1006 1
50 1006 1
51 1006 1
53 1006 1
55 1006 1
56 1006 1
59 1006 1
60 1006 1
61 1006 1
62 1006 1
63 1006 1
64 1006 1
66 1006 1
68 1006 1
72 1006 1
76 1006 1
80 1006 1
84 1006 1
86 1006 1
87 1006 1
89 1006 1
90 1006 1
92 1006 1
93 1006 1
96 1006 1
99 1006 1
100 1006 1
102 1006 1
103 1006 1
109 1006 1
110 1006 1
111 1006 1
113 1006 1
116 1006 1
117 1006 1
118 1006 1
120 1006 1
121 1006 1
122 1006 1
123 1006 1
125 1006 1
127 1006 1
129 1006 1
130 1006 1
132 1006 1
133 1006 1
1 1007 1
36 1007 1
38 1007 1
40 1007 1
41 1007 1
42 1007 1
44 1007 1
45 1007 1
48 1007 1
52 1007 1
55 1007 1
56 1007 1
58 1007 1
59 1007 1
60 1007 1
62 1007 1
64 1007 1
68 1007 1
69 1007 1
72 1007 1
76 1007 1
78 1007 1
79 1007 1
83 1007 1
84 1007 1
86 1007 1
88 1007 1
89 1007 1
90 1007 1
91 1007 1
94 1007 1
96 1007 1
97 1007 1
98 1007 1
99 1007 1
101 1007 1
102 1007 1
106 1007 1
107 1007 1
110 1007 1
111 1007 1
112 1007 1
115 1007 1
116 1007 1
117 1007 1
118 1007 1
120 1007 1
122 1007 1
126 1007 1
130 1007 1
131 1007 1
132 1007 1
133 1007 1
135 1007 1
136 1007 1
1 1008 1
3 1008 1
34 1008 1
39 1008 1
42 1008 1
44 1008 1
46 1008 1
48 1008 1
49 1008 1
50 1008 1
52 1008 1
57 1008 1
59 1008 1
60 1008 1
62 1008 1
66 1008 1
67 1008 1
70 1008 1
72 1008 1
73 1008 1
79 1008 1
81 1008 1
82 1008 1
83 1008 1
85 1008 1
86 1008 1
88 1008 1
92 1008 1
93 1008 1
94 1008 1
98 1008 1
99 1008 1
100 1008 1
102 1008 1
104 1008 1
105 1008 1
106 1008 1
107 1008 1
108 1008 1
110 1008 1
111 1008 1
112 1008 1
119 1008 1
121 1008 1
122 1008 1
123 1008 1
124 1008 1
125 1008 1
126 1008 1
127 1008 1
129 1008 1
132 1008 1
134 1008 1
135 1008 1
1 1009 1
2 1009 1
34 1009 1
36 1009 1
37 1009 1
38 1009 1
41 1009 1
44 1009 1
45 1009 1
48 1009 1
52 1009 1
56 1009 1
58 1009 1
60 1009 1
61 1009 1
62 1009 1
63 1009 1
68 1009 1
70 1009 1
75 1009 1
76 1009 1
77 1009 1
80 1009 1
81 1009 1
82 1009 1
85 1009 1
95 1009 1
97 1009 1
98 1009 1
102 1009 1
103 1009 1
105 1009 1
106 1009 1
107 1009 1
109 1009 1
110 1009 1
111 1009 1
113 1009 1
114 1009 1
116 1009 1
118 1009 1
119 1009 1
120 1009 1
121 1009 1
123 1009 1
124 1009 1
125 1009 1
127 1009 1
129 1009 1
130 1009 1
131 1009 1
133 1009 1
134 1009 1
135 1009 1
3 1010 1
4 1010 1
34 1010 1
36 1010 1
38 1010 1
42 1010 1
44 1010 1
48 1010 1
49 1010 1
50 1010 1
52 1010 1
57 1010 1
63 1010 1
65 1010 1
72 1010 1
73 1010 1
74 1010 1
76 1010 1
77 1010 1
80 1010 1
84 1010 1
87 1010 1
90 1010 1
91 1010 1
92 1010 1
96 1010 1
97 1010 1
98 1010 1
99 1010 1
100 1010 1
101 1010 1
102 1010 1
106 1010 1
111 1010 1
115 1010 1
117 1010 1
121 1010 1
123 1010 1
125 1010 1
128 1010 1
129 1010 1
131 1010 1
132 1010 1
135 1010 1
136 1010 1
1 1011 1
2 1011 1
3 1011 1
4 1011 1
36 1011 1
37 1011 1
40 1011 1
41 1011 1
42 1011 1
44 1011 1
48 1011 1
49 1011 1
51 1011 1
53 1011 1
54 1011 1
55 1011 1
61 1011 1
67 1011 1
71 1011 1
73 1011 1
76 1011 1
78 1011 1
79 1011 1
83 1011 1
84 1011 1
85 1011 1
86 1011 1
89 1011 1
90 1011 1
92 1011 1
96 1011 1
100 1011 1
102 1011 1
103 1011 1
104 1011 1
105 1011 1
106 1011 1
109 1011 1
111 1011 1
113 1011 1
115 1011 1
116 1011 1
117 1011 1
121 1011 1
122 1011 1
125 1011 1
131 1011 1
132 1011 1
134 1011 1
2 1012 1
4 1012 1
34 1012 1
37 1012 1
38 1012 1
39 1012 1
40 1012 1
41 1012 1
42 1012 1
43 1012 1
48 1012 1
49 1012 1
50 1012 1
51 1012 1
55 1012 1
56 1012 1
57 1012 1
58 1012 1
59 1012 1
60 1012 1
61 1012 1
63 1012 1
67 1012 1
69 1012 1
70 1012 1
73 1012 1
76 1012 1
79 1012 1
80 1012 1
81 1012 1
82 1012 1
84 1012 1
86 1012 1
87 1012 1
88 1012 1
90 1012 1
91 1012 1
92 1012 1
94 1012 1
98 1012 1
104 1012 1
109 1012 1
113 1012 1
115 1012 1
121 1012 1
122 1012 1
123 1012 1
124 1012 1
129 1012 1
132 1012 1
133 1012 1
134 1012 1
135 1012 1
136 1012 1
4 1013 1
34 1013 1
36 1013 1
38 1013 1
39 1013 1
41 1013 1
42 1013 1
44 1013 1
49 1013 1
50 1013 1
52 1013 1
59 1013 1
60 1013 1
62 1013 1
66 1013 1
67 1013 1
69 1013 1
70 1013 1
73 1013 1
77 1013 1
78 1013 1
82 1013 1
83 1013 1
86 1013 1
89 1013 1
91 1013 1
92 1013 1
97 1013 1
98 1013 1
100 1013 1
102 1013 1
105 1013 1
111 1013 1
112 1013 1
114 1013 1
116 1013 1
118 1013 1
119 1013 1
123 1013 1
127 1013 1
130 1013 1
131 1013 1
133 1013 1
134 1013 1
135 1013 1
136 1013 1
1 1014 1
36 1014 1
37 1014 1
39 1014 1
40 1014 1
41 1014 1
43 1014 1
46 1014 1
47 1014 1
48 1014 1
49 1014 1
50 1014 1
53 1014 1
54 1014 1
56 1014 1
57 1014 1
58 1014 1
59 1014 1
60 1014 1
61 1014 1
62 1014 1
64 1014 1
66 1014 1
67 1014 1
68 1014 1
69 1014 1
70 1014 1
73 1014 1
75 1014 1
77 1014 1
78 1014 1
79 1014 1
80 1014 1
81 1014 1
83 1014 1
84 1014 1
85 1014 1
87 1014 1
88 1014 1
90 1014 1
91 1014 1
92 1014 1
93 1014 1
96 1014 1
97 1014 1
98 1014 1
99 1014 1
100 1014 1
101 1014 1
102 1014 1
106 1014 1
109 1014 1
111 1014 1
113 1014 1
114 1014 1
115 1014 1
117 1014 1
118 1014 1
119 1014 1
120 1014 1
121 1014 1
124 1014 1
126 1014 1
129 1014 1
133 1014 1
134 1014 1
136 1014 1
1 1015 1
3 1015 1
36 1015 1
37 1015 1
38 1015 1
40 1015 1
43 1015 1
47 1015 1
48 1015 1
49 1015 1
52 1015 1
54 1015 1
56 1015 1
63 1015 1
64 1015 1
66 1015 1
68 1015 1
73 1015 1
74 1015 1
75 1015 1
76 1015 1
82 1015 1
86 1015 1
89 1015 1
90 1015 1
91 1015 1
93 1015 1
94 1015 1
95 1015 1
96 1015 1
100 1015 1
101 1015 1
102 1015 1
103 1015 1
105 1015 1
108 1015 1
109 1015 1
111 1015 1
113 1015 1
114 1015 1
116 1015 1
117 1015 1
119 1015 1
120 1015 1
123 1015 1
125 1015 1
129 1015 1
130 1015 1
131 1015 1
133 1015 1
1 1016 1
2 1016 1
3 1016 1
4 1016 1
34 1016 1
36 1016 1
42 1016 1
43 1016 1
44 1016 1
45 1016 1
47 1016 1
48 1016 1
50 1016 1
51 1016 1
56 1016 1
59 1016 1
60 1016 1
62 1016 1
64 1016 1
65 1016 1
67 1016 1
68 1016 1
69 1016 1
70 1016 1
71 1016 1
74 1016 1
76 1016 1
77 1016 1
78 1016 1
79 1016 1
81 1016 1
83 1016 1
84 1016 1
88 1016 1
91 1016 1
95 1016 1
96 1016 1
97 1016 1
98 1016 1
99 1016 1
100 1016 1
101 1016 1
103 1016 1
106 1016 1
107 1016 1
110 1016 1
111 1016 1
113 1016 1
116 1016 1
117 1016 1
120 1016 1
121 1016 1
126 1016 1
131 1016 1
132 1016 1
133 1016 1
135 1016 1
2 1017 1
3 1017 1
4 1017 1
37 1017 1
39 1017 1
41 1017 1
43 1017 1
46 1017 1
48 1017 1
50 1017 1
55 1017 1
57 1017 1
58 1017 1
59 1017 1
63 1017 1
64 1017 1
65 1017 1
66 1017 1
69 1017 1
71 1017 1
72 1017 1
73 1017 1
76 1017 1
78 1017 1
81 1017 1
82 1017 1
83 1017 1
86 1017 1
90 1017 1
91 1017 1
92 1017 1
94 1017 1
96 1017 1
100 1017 1
101 1017 1
102 1017 1
103 1017 1
104 1017 1
105 1017 1
106 1017 1
107 1017 1
108 1017 1
109 1017 1
115 1017 1
116 1017 1
119 1017 1
120 1017 1
121 1017 1
122 1017 1
123 1017 1
125 1017 1
126 1017 1
132 1017 1
133 1017 1
134 1017 1
136 1017 1
2 1018 1
3 1018 1
36 1018 1
37 1018 1
38 1018 1
39 1018 1
41 1018 1
42 1018 1
43 1018 1
44 1018 1
46 1018 1
48 1018 1
49 1018 1
51 1018 1
53 1018 1
58 1018 1
60 1018 1
61 1018 1
64 1018 1
66 1018 1
67 1018 1
68 1018 1
73 1018 1
76 1018 1
77 1018 1
80 1018 1
81 1018 1
83 1018 1
84 1018 1
87 1018 1
91 1018 1
92 1018 1
96 1018 1
98 1018 1
99 1018 1
102 1018 1
103 1018 1
106 1018 1
107 1018 1
109 1018 1
111 1018 1
113 1018 1
114 1018 1
116 1018 1
118 1018 1
119 1018 1
123 1018 1
124 1018 1
127 1018 1
128 1018 1
129 1018 1
130 1018 1
132 1018 1
133 1018 1
134 1018 1
2 1019 1
3 1019 1
4 1019 1
37 1019 1
40 1019 1
41 1019 1
43 1019 1
44 1019 1
45 1019 1
46 1019 1
47 1019 1
50 1019 1
55 1019 1
57 1019 1
58 1019 1
60 1019 1
61 1019 1
68 1019 1
69 1019 1
70 1019 1
76 1019 1
78 1019 1
83 1019 1
84 1019 1
85 1019 1
86 1019 1
87 1019 1
89 1019 1
90 1019 1
92 1019 1
93 1019 1
99 1019 1
100 1019 1
101 1019 1
105 1019 1
106 1019 1
107 1019 1
109 1019 1
110 1019 1
111 1019 1
112 1019 1
122 1019 1
124 1019 1
125 1019 1
126 1019 1
130 1019 1
131 1019 1
132 1019 1
134 1019 1
2 1020 1
3 1020 1
4 1020 1
34 1020 1
36 1020 1
38 1020 1
41 1020 1
43 1020 1
45 1020 1
48 1020 1
49 1020 1
51 1020 1
54 1020 1
57 1020 1
60 1020 1
62 1020 1
63 1020 1
66 1020 1
67 1020 1
72 1020 1
73 1020 1
76 1020 1
79 1020 1
81 1020 1
84 1020 1
85 1020 1
86 1020 1
88 1020 1
89 1020 1
90 1020 1
93 1020 1
95 1020 1
96 1020 1
97 1020 1
98 1020 1
103 1020 1
106 1020 1
109 1020 1
110 1020 1
112 1020 1
113 1020 1
114 1020 1
116 1020 1
119 1020 1
120 1020 1
125 1020 1
126 1020 1
127 1020 1
129 1020 1
132 1020 1
133 1020 1
134 1020 1
135 1020 1
