%%MatrixMarket matrix coordinate integer general
450 1020 3600
1 1 1
151 1 1
301 1 1
2 2 1
152 2 1
302 2 1
3 3 1
153 3 1
303 3 1
4 4 1
154 4 1
304 4 1
5 5 1
155 5 1
305 5 1
6 6 1
156 6 1
306 6 1
7 7 1
157 7 1
307 7 1
8 8 1
158 8 1
308 8 1
9 9 1
159 9 1
309 9 1
10 10 1
160 10 1
310 10 1
11 11 1
161 11 1
311 11 1
12 12 1
162 12 1
312 12 1
13 13 1
163 13 1
313 13 1
14 14 1
164 14 1
314 14 1
15 15 1
165 15 1
315 15 1
16 16 1
166 16 1
316 16 1
17 17 1
167 17 1
317 17 1
18 18 1
168 18 1
318 18 1
19 19 1
169 19 1
319 19 1
20 20 1
170 20 1
320 20 1
21 21 1
171 21 1
321 21 1
22 22 1
172 22 1
322 22 1
23 23 1
173 23 1
323 23 1
24 24 1
174 24 1
324 24 1
25 25 1
175 25 1
325 25 1
26 26 1
176 26 1
326 26 1
27 27 1
177 27 1
327 27 1
28 28 1
178 28 1
328 28 1
29 29 1
179 29 1
329 29 1
30 30 1
180 30 1
330 30 1
31 31 1
181 31 1
331 31 1
32 32 1
182 32 1
332 32 1
33 33 1
183 33 1
333 33 1
34 34 1
184 34 1
334 34 1
35 35 1
185 35 1
335 35 1
36 36 1
186 36 1
336 36 1
37 37 1
187 37 1
337 37 1
38 38 1
188 38 1
338 38 1
39 39 1
189 39 1
339 39 1
40 40 1
190 40 1
340 40 1
41 41 1
191 41 1
341 41 1
42 42 1
192 42 1
342 42 1
43 43 1
193 43 1
343 43 1
44 44 1
194 44 1
344 44 1
45 45 1
195 45 1
345 45 1
46 46 1
196 46 1
346 46 1
47 47 1
197 47 1
347 47 1
48 48 1
198 48 1
348 48 1
49 49 1
199 49 1
349 49 1
50 50 1
200 50 1
350 50 1
51 51 1
201 51 1
351 51 1
52 52 1
202 52 1
352 52 1
53 53 1
203 53 1
353 53 1
54 54 1
204 54 1
354 54 1
55 55 1
205 55 1
355 55 1
56 56 1
206 56 1
356 56 1
57 57 1
207 57 1
357 57 1
58 58 1
208 58 1
358 58 1
59 59 1
209 59 1
359 59 1
60 60 1
210 60 1
360 60 1
61 61 1
211 61 1
361 61 1
62 62 1
212 62 1
362 62 1
63 63 1
213 63 1
363 63 1
64 64 1
214 64 1
364 64 1
65 65 1
215 65 1
365 65 1
66 66 1
216 66 1
366 66 1
67 67 1
217 67 1
367 67 1
68 68 1
218 68 1
368 68 1
69 69 1
219 69 1
369 69 1
70 70 1
220 70 1
370 70 1
71 71 1
221 71 1
371 71 1
72 72 1
222 72 1
372 72 1
73 73 1
223 73 1
373 73 1
74 74 1
224 74 1
374 74 1
75 75 1
225 75 1
375 75 1
76 76 1
226 76 1
376 76 1
77 77 1
227 77 1
377 77 1
78 78 1
228 78 1
378 78 1
79 79 1
229 79 1
379 79 1
80 80 1
230 80 1
380 80 1
81 81 1
231 81 1
381 81 1
82 82 1
232 82 1
382 82 1
83 83 1
233 83 1
383 83 1
84 84 1
234 84 1
384 84 1
85 85 1
235 85 1
385 85 1
86 86 1
236 86 1
386 86 1
87 87 1
237 87 1
387 87 1
88 88 1
238 88 1
388 88 1
89 89 1
239 89 1
389 89 1
90 90 1
240 90 1
390 90 1
91 91 1
241 91 1
391 91 1
92 92 1
242 92 1
392 92 1
93 93 1
243 93 1
393 93 1
94 94 1
244 94 1
394 94 1
95 95 1
245 95 1
395 95 1
96 96 1
246 96 1
396 96 1
97 97 1
247 97 1
397 97 1
98 98 1
248 98 1
398 98 1
99 99 1
249 99 1
399 99 1
100 100 1
250 100 1
400 100 1
101 101 1
251 101 1
401 101 1
102 102 1
252 102 1
402 102 1
103 103 1
253 103 1
403 103 1
104 104 1
254 104 1
404 104 1
105 105 1
255 105 1
405 105 1
106 106 1
256 106 1
406 106 1
107 107 1
257 107 1
407 107 1
108 108 1
258 108 1
408 108 1
109 109 1
259 109 1
409 109 1
110 110 1
260 110 1
410 110 1
111 111 1
261 111 1
411 111 1
112 112 1
262 112 1
412 112 1
113 113 1
263 113 1
413 113 1
114 114 1
264 114 1
414 114 1
115 115 1
265 115 1
415 115 1
116 116 1
266 116 1
416 116 1
117 117 1
267 117 1
417 117 1
118 118 1
268 118 1
418 118 1
119 119 1
269 119 1
419 119 1
120 120 1
270 120 1
420 120 1
121 121 1
271 121 1
421 121 1
122 122 1
272 122 1
422 122 1
123 123 1
273 123 1
423 123 1
124 124 1
274 124 1
424 124 1
125 125 1
275 125 1
425 125 1
126 126 1
276 126 1
426 126 1
127 127 1
277 127 1
427 127 1
128 128 1
278 128 1
428 128 1
129 129 1
279 129 1
429 129 1
130 130 1
280 130 1
430 130 1
131 131 1
281 131 1
431 131 1
132 132 1
282 132 1
432 132 1
133 133 1
283 133 1
433 133 1
134 134 1
284 134 1
434 134 1
135 135 1
285 135 1
435 135 1
136 136 1
286 136 1
436 136 1
137 137 1
287 137 1
437 137 1
138 138 1
288 138 1
438 138 1
139 139 1
289 139 1
439 139 1
140 140 1
290 140 1
440 140 1
141 141 1
291 141 1
441 141 1
142 142 1
292 142 1
442 142 1
143 143 1
293 143 1
443 143 1
144 144 1
294 144 1
444 144 1
145 145 1
295 145 1
445 145 1
146 146 1
296 146 1
446 146 1
147 147 1
297 147 1
447 147 1
148 148 1
298 148 1
448 148 1
149 149 1
299 149 1
449 149 1
150 150 1
300 150 1
450 150 1
1 151 1
153 151 1
317 151 1
2 152 1
154 152 1
318 152 1
3 153 1
155 153 1
319 153 1
4 154 1
156 154 1
320 154 1
5 155 1
157 155 1
321 155 1
6 156 1
158 156 1
322 156 1
7 157 1
159 157 1
323 157 1
8 158 1
160 158 1
324 158 1
9 159 1
161 159 1
325 159 1
10 160 1
162 160 1
326 160 1
11 161 1
163 161 1
327 161 1
12 162 1
164 162 1
328 162 1
13 163 1
165 163 1
329 163 1
14 164 1
166 164 1
330 164 1
15 165 1
167 165 1
301 165 1
16 166 1
168 166 1
302 166 1
17 167 1
169 167 1
303 167 1
18 168 1
170 168 1
304 168 1
19 169 1
171 169 1
305 169 1
20 170 1
172 170 1
306 170 1
21 171 1
173 171 1
307 171 1
22 172 1
174 172 1
308 172 1
23 173 1
175 173 1
309 173 1
24 174 1
176 174 1
310 174 1
25 175 1
177 175 1
311 175 1
26 176 1
178 176 1
312 176 1
27 177 1
179 177 1
313 177 1
28 178 1
180 178 1
314 178 1
29 179 1
151 179 1
315 179 1
30 180 1
152 180 1
316 180 1
31 181 1
183 181 1
347 181 1
32 182 1
184 182 1
348 182 1
33 183 1
185 183 1
349 183 1
34 184 1
186 184 1
350 184 1
35 185 1
187 185 1
351 185 1
36 186 1
188 186 1
352 186 1
37 187 1
189 187 1
353 187 1
38 188 1
190 188 1
354 188 1
39 189 1
191 189 1
355 189 1
40 190 1
192 190 1
356 190 1
41 191 1
193 191 1
357 191 1
42 192 1
194 192 1
358 192 1
43 193 1
195 193 1
359 193 1
44 194 1
196 194 1
360 194 1
45 195 1
197 195 1
331 195 1
46 196 1
198 196 1
332 196 1
47 197 1
199 197 1
333 197 1
48 198 1
200 198 1
334 198 1
49 199 1
201 199 1
335 199 1
50 200 1
202 200 1
336 200 1
51 201 1
203 201 1
337 201 1
52 202 1
204 202 1
338 202 1
53 203 1
205 203 1
339 203 1
54 204 1
206 204 1
340 204 1
55 205 1
207 205 1
341 205 1
56 206 1
208 206 1
342 206 1
57 207 1
209 207 1
343 207 1
58 208 1
210 208 1
344 208 1
59 209 1
181 209 1
345 209 1
60 210 1
182 210 1
346 210 1
61 211 1
213 211 1
377 211 1
62 212 1
214 212 1
378 212 1
63 213 1
215 213 1
379 213 1
64 214 1
216 214 1
380 214 1
65 215 1
217 215 1
381 215 1
66 216 1
218 216 1
382 216 1
67 217 1
219 217 1
383 217 1
68 218 1
220 218 1
384 218 1
69 219 1
221 219 1
385 219 1
70 220 1
222 220 1
386 220 1
71 221 1
223 221 1
387 221 1
72 222 1
224 222 1
388 222 1
73 223 1
225 223 1
389 223 1
74 224 1
226 224 1
390 224 1
75 225 1
227 225 1
361 225 1
76 226 1
228 226 1
362 226 1
77 227 1
229 227 1
363 227 1
78 228 1
230 228 1
364 228 1
79 229 1
231 229 1
365 229 1
80 230 1
232 230 1
366 230 1
81 231 1
233 231 1
367 231 1
82 232 1
234 232 1
368 232 1
83 233 1
235 233 1
369 233 1
84 234 1
236 234 1
370 234 1
85 235 1
237 235 1
371 235 1
86 236 1
238 236 1
372 236 1
87 237 1
239 237 1
373 237 1
88 238 1
240 238 1
374 238 1
89 239 1
211 239 1
375 239 1
90 240 1
212 240 1
376 240 1
91 241 1
243 241 1
407 241 1
92 242 1
244 242 1
408 242 1
93 243 1
245 243 1
409 243 1
94 244 1
246 244 1
410 244 1
95 245 1
247 245 1
411 245 1
96 246 1
248 246 1
412 246 1
97 247 1
249 247 1
413 247 1
98 248 1
250 248 1
414 248 1
99 249 1
251 249 1
415 249 1
100 250 1
252 250 1
416 250 1
101 251 1
253 251 1
417 251 1
102 252 1
254 252 1
418 252 1
103 253 1
255 253 1
419 253 1
104 254 1
256 254 1
420 254 1
105 255 1
257 255 1
391 255 1
106 256 1
258 256 1
392 256 1
107 257 1
259 257 1
393 257 1
108 258 1
260 258 1
394 258 1
109 259 1
261 259 1
395 259 1
110 260 1
262 260 1
396 260 1
111 261 1
263 261 1
397 261 1
112 262 1
264 262 1
398 262 1
113 263 1
265 263 1
399 263 1
114 264 1
266 264 1
400 264 1
115 265 1
267 265 1
401 265 1
116 266 1
268 266 1
402 266 1
117 267 1
269 267 1
403 267 1
118 268 1
270 268 1
404 268 1
119 269 1
241 269 1
405 269 1
120 270 1
242 270 1
406 270 1
121 271 1
273 271 1
437 271 1
122 272 1
274 272 1
438 272 1
123 273 1
275 273 1
439 273 1
124 274 1
276 274 1
440 274 1
125 275 1
277 275 1
441 275 1
126 276 1
278 276 1
442 276 1
127 277 1
279 277 1
443 277 1
128 278 1
280 278 1
444 278 1
129 279 1
281 279 1
445 279 1
130 280 1
282 280 1
446 280 1
131 281 1
283 281 1
447 281 1
132 282 1
284 282 1
448 282 1
133 283 1
285 283 1
449 283 1
134 284 1
286 284 1
450 284 1
135 285 1
287 285 1
421 285 1
136 286 1
288 286 1
422 286 1
137 287 1
289 287 1
423 287 1
138 288 1
290 288 1
424 288 1
139 289 1
291 289 1
425 289 1
140 290 1
292 290 1
426 290 1
141 291 1
293 291 1
427 291 1
142 292 1
294 292 1
428 292 1
143 293 1
295 293 1
429 293 1
144 294 1
296 294 1
430 294 1
145 295 1
297 295 1
431 295 1
146 296 1
298 296 1
432 296 1
147 297 1
299 297 1
433 297 1
148 298 1
300 298 1
434 298 1
149 299 1
271 299 1
435 299 1
150 300 1
272 300 1
436 300 1
1 301 1
165 301 1
312 301 1
2 302 1
166 302 1
313 302 1
3 303 1
167 303 1
314 303 1
4 304 1
168 304 1
315 304 1
5 305 1
169 305 1
316 305 1
6 306 1
170 306 1
317 306 1
7 307 1
171 307 1
318 307 1
8 308 1
172 308 1
319 308 1
9 309 1
173 309 1
320 309 1
10 310 1
174 310 1
321 310 1
11 311 1
175 311 1
322 311 1
12 312 1
176 312 1
323 312 1
13 313 1
177 313 1
324 313 1
14 314 1
178 314 1
325 314 1
15 315 1
179 315 1
326 315 1
16 316 1
180 316 1
327 316 1
17 317 1
151 317 1
328 317 1
18 318 1
152 318 1
329 318 1
19 319 1
153 319 1
330 319 1
20 320 1
154 320 1
301 320 1
21 321 1
155 321 1
302 321 1
22 322 1
156 322 1
303 322 1
23 323 1
157 323 1
304 323 1
24 324 1
158 324 1
305 324 1
25 325 1
159 325 1
306 325 1
26 326 1
160 326 1
307 326 1
27 327 1
161 327 1
308 327 1
28 328 1
162 328 1
309 328 1
29 329 1
163 329 1
310 329 1
30 330 1
164 330 1
311 330 1
31 331 1
195 331 1
342 331 1
32 332 1
196 332 1
343 332 1
33 333 1
197 333 1
344 333 1
34 334 1
198 334 1
345 334 1
35 335 1
199 335 1
346 335 1
36 336 1
200 336 1
347 336 1
37 337 1
201 337 1
348 337 1
38 338 1
202 338 1
349 338 1
39 339 1
203 339 1
350 339 1
40 340 1
204 340 1
351 340 1
41 341 1
205 341 1
352 341 1
42 342 1
206 342 1
353 342 1
43 343 1
207 343 1
354 343 1
44 344 1
208 344 1
355 344 1
45 345 1
209 345 1
356 345 1
46 346 1
210 346 1
357 346 1
47 347 1
181 347 1
358 347 1
48 348 1
182 348 1
359 348 1
49 349 1
183 349 1
360 349 1
50 350 1
184 350 1
331 350 1
51 351 1
185 351 1
332 351 1
52 352 1
186 352 1
333 352 1
53 353 1
187 353 1
334 353 1
54 354 1
188 354 1
335 354 1
55 355 1
189 355 1
336 355 1
56 356 1
190 356 1
337 356 1
57 357 1
191 357 1
338 357 1
58 358 1
192 358 1
339 358 1
59 359 1
193 359 1
340 359 1
60 360 1
194 360 1
341 360 1
61 361 1
225 361 1
372 361 1
62 362 1
226 362 1
373 362 1
63 363 1
227 363 1
374 363 1
64 364 1
228 364 1
375 364 1
65 365 1
229 365 1
376 365 1
66 366 1
230 366 1
377 366 1
67 367 1
231 367 1
378 367 1
68 368 1
232 368 1
379 368 1
69 369 1
233 369 1
380 369 1
70 370 1
234 370 1
381 370 1
71 371 1
235 371 1
382 371 1
72 372 1
236 372 1
383 372 1
73 373 1
237 373 1
384 373 1
74 374 1
238 374 1
385 374 1
75 375 1
239 375 1
386 375 1
76 376 1
240 376 1
387 376 1
77 377 1
211 377 1
388 377 1
78 378 1
212 378 1
389 378 1
79 379 1
213 379 1
390 379 1
80 380 1
214 380 1
361 380 1
81 381 1
215 381 1
362 381 1
82 382 1
216 382 1
363 382 1
83 383 1
217 383 1
364 383 1
84 384 1
218 384 1
365 384 1
85 385 1
219 385 1
366 385 1
86 386 1
220 386 1
367 386 1
87 387 1
221 387 1
368 387 1
88 388 1
222 388 1
369 388 1
89 389 1
223 389 1
370 389 1
90 390 1
224 390 1
371 390 1
91 391 1
255 391 1
402 391 1
92 392 1
256 392 1
403 392 1
93 393 1
257 393 1
404 393 1
94 394 1
258 394 1
405 394 1
95 395 1
259 395 1
406 395 1
96 396 1
260 396 1
407 396 1
97 397 1
261 397 1
408 397 1
98 398 1
262 398 1
409 398 1
99 399 1
263 399 1
410 399 1
100 400 1
264 400 1
411 400 1
101 401 1
265 401 1
412 401 1
102 402 1
266 402 1
413 402 1
103 403 1
267 403 1
414 403 1
104 404 1
268 404 1
415 404 1
105 405 1
269 405 1
416 405 1
106 406 1
270 406 1
417 406 1
107 407 1
241 407 1
418 407 1
108 408 1
242 408 1
419 408 1
109 409 1
243 409 1
420 409 1
110 410 1
244 410 1
391 410 1
111 411 1
245 411 1
392 411 1
112 412 1
246 412 1
393 412 1
113 413 1
247 413 1
394 413 1
114 414 1
248 414 1
395 414 1
115 415 1
249 415 1
396 415 1
116 416 1
250 416 1
397 416 1
117 417 1
251 417 1
398 417 1
118 418 1
252 418 1
399 418 1
119 419 1
253 419 1
400 419 1
120 420 1
254 420 1
401 420 1
121 421 1
285 421 1
432 421 1
122 422 1
286 422 1
433 422 1
123 423 1
287 423 1
434 423 1
124 424 1
288 424 1
435 424 1
125 425 1
289 425 1
436 425 1
126 426 1
290 426 1
437 426 1
127 427 1
291 427 1
438 427 1
128 428 1
292 428 1
439 428 1
129 429 1
293 429 1
440 429 1
130 430 1
294 430 1
441 430 1
131 431 1
295 431 1
442 431 1
132 432 1
296 432 1
443 432 1
133 433 1
297 433 1
444 433 1
134 434 1
298 434 1
445 434 1
135 435 1
299 435 1
446 435 1
136 436 1
300 436 1
447 436 1
137 437 1
271 437 1
448 437 1
138 438 1
272 438 1
449 438 1
139 439 1
273 439 1
450 439 1
140 440 1
274 440 1
421 440 1
141 441 1
275 441 1
422 441 1
142 442 1
276 442 1
423 442 1
143 443 1
277 443 1
424 443 1
144 444 1
278 444 1
425 444 1
145 445 1
279 445 1
426 445 1
146 446 1
280 446 1
427 446 1
147 447 1
281 447 1
428 447 1
148 448 1
282 448 1
429 448 1
149 449 1
283 449 1
430 449 1
150 450 1
284 450 1
431 450 1
1 451 1
175 451 1
315 451 1
2 452 1
176 452 1
316 452 1
3 453 1
177 453 1
317 453 1
4 454 1
178 454 1
318 454 1
5 455 1
179 455 1
319 455 1
6 456 1
180 456 1
320 456 1
7 457 1
151 457 1
321 457 1
8 458 1
152 458 1
322 458 1
9 459 1
153 459 1
323 459 1
10 460 1
154 460 1
324 460 1
11 461 1
155 461 1
325 461 1
12 462 1
156 462 1
326 462 1
13 463 1
157 463 1
327 463 1
14 464 1
158 464 1
328 464 1
15 465 1
159 465 1
329 465 1
16 466 1
160 466 1
330 466 1
17 467 1
161 467 1
301 467 1
18 468 1
162 468 1
302 468 1
19 469 1
163 469 1
303 469 1
20 470 1
164 470 1
304 470 1
21 471 1
165 471 1
305 471 1
22 472 1
166 472 1
306 472 1
23 473 1
167 473 1
307 473 1
24 474 1
168 474 1
308 474 1
25 475 1
169 475 1
309 475 1
26 476 1
170 476 1
310 476 1
27 477 1
171 477 1
311 477 1
28 478 1
172 478 1
312 478 1
29 479 1
173 479 1
313 479 1
30 480 1
174 480 1
314 480 1
31 481 1
205 481 1
345 481 1
32 482 1
206 482 1
346 482 1
33 483 1
207 483 1
347 483 1
34 484 1
208 484 1
348 484 1
35 485 1
209 485 1
349 485 1
36 486 1
210 486 1
350 486 1
37 487 1
181 487 1
351 487 1
38 488 1
182 488 1
352 488 1
39 489 1
183 489 1
353 489 1
40 490 1
184 490 1
354 490 1
41 491 1
185 491 1
355 491 1
42 492 1
186 492 1
356 492 1
43 493 1
187 493 1
357 493 1
44 494 1
188 494 1
358 494 1
45 495 1
189 495 1
359 495 1
46 496 1
190 496 1
360 496 1
47 497 1
191 497 1
331 497 1
48 498 1
192 498 1
332 498 1
49 499 1
193 499 1
333 499 1
50 500 1
194 500 1
334 500 1
51 501 1
195 501 1
335 501 1
52 502 1
196 502 1
336 502 1
53 503 1
197 503 1
337 503 1
54 504 1
198 504 1
338 504 1
55 505 1
199 505 1
339 505 1
56 506 1
200 506 1
340 506 1
57 507 1
201 507 1
341 507 1
58 508 1
202 508 1
342 508 1
59 509 1
203 509 1
343 509 1
60 510 1
204 510 1
344 510 1
61 511 1
235 511 1
375 511 1
62 512 1
236 512 1
376 512 1
63 513 1
237 513 1
377 513 1
64 514 1
238 514 1
378 514 1
65 515 1
239 515 1
379 515 1
66 516 1
240 516 1
380 516 1
67 517 1
211 517 1
381 517 1
68 518 1
212 518 1
382 518 1
69 519 1
213 519 1
383 519 1
70 520 1
214 520 1
384 520 1
71 521 1
215 521 1
385 521 1
72 522 1
216 522 1
386 522 1
73 523 1
217 523 1
387 523 1
74 524 1
218 524 1
388 524 1
75 525 1
219 525 1
389 525 1
76 526 1
220 526 1
390 526 1
77 527 1
221 527 1
361 527 1
78 528 1
222 528 1
362 528 1
79 529 1
223 529 1
363 529 1
80 530 1
224 530 1
364 530 1
81 531 1
225 531 1
365 531 1
82 532 1
226 532 1
366 532 1
83 533 1
227 533 1
367 533 1
84 534 1
228 534 1
368 534 1
85 535 1
229 535 1
369 535 1
86 536 1
230 536 1
370 536 1
87 537 1
231 537 1
371 537 1
88 538 1
232 538 1
372 538 1
89 539 1
233 539 1
373 539 1
90 540 1
234 540 1
374 540 1
91 541 1
265 541 1
405 541 1
92 542 1
266 542 1
406 542 1
93 543 1
267 543 1
407 543 1
94 544 1
268 544 1
408 544 1
95 545 1
269 545 1
409 545 1
96 546 1
270 546 1
410 546 1
97 547 1
241 547 1
411 547 1
98 548 1
242 548 1
412 548 1
99 549 1
243 549 1
413 549 1
100 550 1
244 550 1
414 550 1
101 551 1
245 551 1
415 551 1
102 552 1
246 552 1
416 552 1
103 553 1
247 553 1
417 553 1
104 554 1
248 554 1
418 554 1
105 555 1
249 555 1
419 555 1
106 556 1
250 556 1
420 556 1
107 557 1
251 557 1
391 557 1
108 558 1
252 558 1
392 558 1
109 559 1
253 559 1
393 559 1
110 560 1
254 560 1
394 560 1
111 561 1
255 561 1
395 561 1
112 562 1
256 562 1
396 562 1
113 563 1
257 563 1
397 563 1
114 564 1
258 564 1
398 564 1
115 565 1
259 565 1
399 565 1
116 566 1
260 566 1
400 566 1
117 567 1
261 567 1
401 567 1
118 568 1
262 568 1
402 568 1
119 569 1
263 569 1
403 569 1
120 570 1
264 570 1
404 570 1
121 571 1
295 571 1
435 571 1
122 572 1
296 572 1
436 572 1
123 573 1
297 573 1
437 573 1
124 574 1
298 574 1
438 574 1
125 575 1
299 575 1
439 575 1
126 576 1
300 576 1
440 576 1
127 577 1
271 577 1
441 577 1
128 578 1
272 578 1
442 578 1
129 579 1
273 579 1
443 579 1
130 580 1
274 580 1
444 580 1
131 581 1
275 581 1
445 581 1
132 582 1
276 582 1
446 582 1
133 583 1
277 583 1
447 583 1
134 584 1
278 584 1
448 584 1
135 585 1
279 585 1
449 585 1
136 586 1
280 586 1
450 586 1
137 587 1
281 587 1
421 587 1
138 588 1
282 588 1
422 588 1
139 589 1
283 589 1
423 589 1
140 590 1
284 590 1
424 590 1
141 591 1
285 591 1
425 591 1
142 592 1
286 592 1
426 592 1
143 593 1
287 593 1
427 593 1
144 594 1
288 594 1
428 594 1
145 595 1
289 595 1
429 595 1
146 596 1
290 596 1
430 596 1
147 597 1
291 597 1
431 597 1
148 598 1
292 598 1
432 598 1
149 599 1
293 599 1
433 599 1
150 600 1
294 600 1
434 600 1
1 601 1
176 601 1
314 601 1
2 602 1
177 602 1
315 602 1
3 603 1
178 603 1
316 603 1
4 604 1
179 604 1
317 604 1
5 605 1
180 605 1
318 605 1
6 606 1
151 606 1
319 606 1
7 607 1
152 607 1
320 607 1
8 608 1
153 608 1
321 608 1
9 609 1
154 609 1
322 609 1
10 610 1
155 610 1
323 610 1
11 611 1
156 611 1
324 611 1
12 612 1
157 612 1
325 612 1
13 613 1
158 613 1
326 613 1
14 614 1
159 614 1
327 614 1
15 615 1
160 615 1
328 615 1
16 616 1
161 616 1
329 616 1
17 617 1
162 617 1
330 617 1
18 618 1
163 618 1
301 618 1
19 619 1
164 619 1
302 619 1
20 620 1
165 620 1
303 620 1
21 621 1
166 621 1
304 621 1
22 622 1
167 622 1
305 622 1
23 623 1
168 623 1
306 623 1
24 624 1
169 624 1
307 624 1
25 625 1
170 625 1
308 625 1
26 626 1
171 626 1
309 626 1
27 627 1
172 627 1
310 627 1
28 628 1
173 628 1
311 628 1
29 629 1
174 629 1
312 629 1
30 630 1
175 630 1
313 630 1
31 631 1
206 631 1
344 631 1
32 632 1
207 632 1
345 632 1
33 633 1
208 633 1
346 633 1
34 634 1
209 634 1
347 634 1
35 635 1
210 635 1
348 635 1
36 636 1
181 636 1
349 636 1
37 637 1
182 637 1
350 637 1
38 638 1
183 638 1
351 638 1
39 639 1
184 639 1
352 639 1
40 640 1
185 640 1
353 640 1
41 641 1
186 641 1
354 641 1
42 642 1
187 642 1
355 642 1
43 643 1
188 643 1
356 643 1
44 644 1
189 644 1
357 644 1
45 645 1
190 645 1
358 645 1
46 646 1
191 646 1
359 646 1
47 647 1
192 647 1
360 647 1
48 648 1
193 648 1
331 648 1
49 649 1
194 649 1
332 649 1
50 650 1
195 650 1
333 650 1
51 651 1
196 651 1
334 651 1
52 652 1
197 652 1
335 652 1
53 653 1
198 653 1
336 653 1
54 654 1
199 654 1
337 654 1
55 655 1
200 655 1
338 655 1
56 656 1
201 656 1
339 656 1
57 657 1
202 657 1
340 657 1
58 658 1
203 658 1
341 658 1
59 659 1
204 659 1
342 659 1
60 660 1
205 660 1
343 660 1
61 661 1
236 661 1
374 661 1
62 662 1
237 662 1
375 662 1
63 663 1
238 663 1
376 663 1
64 664 1
239 664 1
377 664 1
65 665 1
240 665 1
378 665 1
66 666 1
211 666 1
379 666 1
67 667 1
212 667 1
380 667 1
68 668 1
213 668 1
381 668 1
69 669 1
214 669 1
382 669 1
70 670 1
215 670 1
383 670 1
71 671 1
216 671 1
384 671 1
72 672 1
217 672 1
385 672 1
73 673 1
218 673 1
386 673 1
74 674 1
219 674 1
387 674 1
75 675 1
220 675 1
388 675 1
76 676 1
221 676 1
389 676 1
77 677 1
222 677 1
390 677 1
78 678 1
223 678 1
361 678 1
79 679 1
224 679 1
362 679 1
80 680 1
225 680 1
363 680 1
81 681 1
226 681 1
364 681 1
82 682 1
227 682 1
365 682 1
83 683 1
228 683 1
366 683 1
84 684 1
229 684 1
367 684 1
85 685 1
230 685 1
368 685 1
86 686 1
231 686 1
369 686 1
87 687 1
232 687 1
370 687 1
88 688 1
233 688 1
371 688 1
89 689 1
234 689 1
372 689 1
90 690 1
235 690 1
373 690 1
91 691 1
266 691 1
404 691 1
92 692 1
267 692 1
405 692 1
93 693 1
268 693 1
406 693 1
94 694 1
269 694 1
407 694 1
95 695 1
270 695 1
408 695 1
96 696 1
241 696 1
409 696 1
97 697 1
242 697 1
410 697 1
98 698 1
243 698 1
411 698 1
99 699 1
244 699 1
412 699 1
100 700 1
245 700 1
413 700 1
101 701 1
246 701 1
414 701 1
102 702 1
247 702 1
415 702 1
103 703 1
248 703 1
416 703 1
104 704 1
249 704 1
417 704 1
105 705 1
250 705 1
418 705 1
106 706 1
251 706 1
419 706 1
107 707 1
252 707 1
420 707 1
108 708 1
253 708 1
391 708 1
109 709 1
254 709 1
392 709 1
110 710 1
255 710 1
393 710 1
111 711 1
256 711 1
394 711 1
112 712 1
257 712 1
395 712 1
113 713 1
258 713 1
396 713 1
114 714 1
259 714 1
397 714 1
115 715 1
260 715 1
398 715 1
116 716 1
261 716 1
399 716 1
117 717 1
262 717 1
400 717 1
118 718 1
263 718 1
401 718 1
119 719 1
264 719 1
402 719 1
120 720 1
265 720 1
403 720 1
121 721 1
296 721 1
434 721 1
122 722 1
297 722 1
435 722 1
123 723 1
298 723 1
436 723 1
124 724 1
299 724 1
437 724 1
125 725 1
300 725 1
438 725 1
126 726 1
271 726 1
439 726 1
127 727 1
272 727 1
440 727 1
128 728 1
273 728 1
441 728 1
129 729 1
274 729 1
442 729 1
130 730 1
275 730 1
443 730 1
131 731 1
276 731 1
444 731 1
132 732 1
277 732 1
445 732 1
133 733 1
278 733 1
446 733 1
134 734 1
279 734 1
447 734 1
135 735 1
280 735 1
448 735 1
136 736 1
281 736 1
449 736 1
137 737 1
282 737 1
450 737 1
138 738 1
283 738 1
421 738 1
139 739 1
284 739 1
422 739 1
140 740 1
285 740 1
423 740 1
141 741 1
286 741 1
424 741 1
142 742 1
287 742 1
425 742 1
143 743 1
288 743 1
426 743 1
144 744 1
289 744 1
427 744 1
145 745 1
290 745 1
428 745 1
146 746 1
291 746 1
429 746 1
147 747 1
292 747 1
430 747 1
148 748 1
293 748 1
431 748 1
149 749 1
294 749 1
432 749 1
150 750 1
295 750 1
433 750 1
1 751 1
31 751 1
61 751 1
91 751 1
121 751 1
2 752 1
32 752 1
62 752 1
92 752 1
122 752 1
3 753 1
33 753 1
63 753 1
93 753 1
123 753 1
4 754 1
34 754 1
64 754 1
94 754 1
124 754 1
5 755 1
35 755 1
65 755 1
95 755 1
125 755 1
6 756 1
36 756 1
66 756 1
96 756 1
126 756 1
7 757 1
37 757 1
67 757 1
97 757 1
127 757 1
8 758 1
38 758 1
68 758 1
98 758 1
128 758 1
9 759 1
39 759 1
69 759 1
99 759 1
129 759 1
10 760 1
40 760 1
70 760 1
100 760 1
130 760 1
11 761 1
41 761 1
71 761 1
101 761 1
131 761 1
12 762 1
42 762 1
72 762 1
102 762 1
132 762 1
13 763 1
43 763 1
73 763 1
103 763 1
133 763 1
14 764 1
44 764 1
74 764 1
104 764 1
134 764 1
15 765 1
45 765 1
75 765 1
105 765 1
135 765 1
16 766 1
46 766 1
76 766 1
106 766 1
136 766 1
17 767 1
47 767 1
77 767 1
107 767 1
137 767 1
18 768 1
48 768 1
78 768 1
108 768 1
138 768 1
19 769 1
49 769 1
79 769 1
109 769 1
139 769 1
20 770 1
50 770 1
80 770 1
110 770 1
140 770 1
21 771 1
51 771 1
81 771 1
111 771 1
141 771 1
22 772 1
52 772 1
82 772 1
112 772 1
142 772 1
23 773 1
53 773 1
83 773 1
113 773 1
143 773 1
24 774 1
54 774 1
84 774 1
114 774 1
144 774 1
25 775 1
55 775 1
85 775 1
115 775 1
145 775 1
26 776 1
56 776 1
86 776 1
116 776 1
146 776 1
27 777 1
57 777 1
87 777 1
117 777 1
147 777 1
28 778 1
58 778 1
88 778 1
118 778 1
148 778 1
29 779 1
59 779 1
89 779 1
119 779 1
149 779 1
30 780 1
60 780 1
90 780 1
120 780 1
150 780 1
1 781 1
59 781 1
77 781 1
97 781 1
126 781 1
2 782 1
60 782 1
78 782 1
98 782 1
127 782 1
3 783 1
31 783 1
79 783 1
99 783 1
128 783 1
4 784 1
32 784 1
80 784 1
100 784 1
129 784 1
5 785 1
33 785 1
81 785 1
101 785 1
130 785 1
6 786 1
34 786 1
82 786 1
102 786 1
131 786 1
7 787 1
35 787 1
83 787 1
103 787 1
132 787 1
8 788 1
36 788 1
84 788 1
104 788 1
133 788 1
9 789 1
37 789 1
85 789 1
105 789 1
134 789 1
10 790 1
38 790 1
86 790 1
106 790 1
135 790 1
11 791 1
39 791 1
87 791 1
107 791 1
136 791 1
12 792 1
40 792 1
88 792 1
108 792 1
137 792 1
13 793 1
41 793 1
89 793 1
109 793 1
138 793 1
14 794 1
42 794 1
90 794 1
110 794 1
139 794 1
15 795 1
43 795 1
61 795 1
111 795 1
140 795 1
16 796 1
44 796 1
62 796 1
112 796 1
141 796 1
17 797 1
45 797 1
63 797 1
113 797 1
142 797 1
18 798 1
46 798 1
64 798 1
114 798 1
143 798 1
19 799 1
47 799 1
65 799 1
115 799 1
144 799 1
20 800 1
48 800 1
66 800 1
116 800 1
145 800 1
21 801 1
49 801 1
67 801 1
117 801 1
146 801 1
22 802 1
50 802 1
68 802 1
118 802 1
147 802 1
23 803 1
51 803 1
69 803 1
119 803 1
148 803 1
24 804 1
52 804 1
70 804 1
120 804 1
149 804 1
25 805 1
53 805 1
71 805 1
91 805 1
150 805 1
26 806 1
54 806 1
72 806 1
92 806 1
121 806 1
27 807 1
55 807 1
73 807 1
93 807 1
122 807 1
28 808 1
56 808 1
74 808 1
94 808 1
123 808 1
29 809 1
57 809 1
75 809 1
95 809 1
124 809 1
30 810 1
58 810 1
76 810 1
96 810 1
125 810 1
1 811 1
45 811 1
80 811 1
107 811 1
138 811 1
2 812 1
46 812 1
81 812 1
108 812 1
139 812 1
3 813 1
47 813 1
82 813 1
109 813 1
140 813 1
4 814 1
48 814 1
83 814 1
110 814 1
141 814 1
5 815 1
49 815 1
84 815 1
111 815 1
142 815 1
6 816 1
50 816 1
85 816 1
112 816 1
143 816 1
7 817 1
51 817 1
86 817 1
113 817 1
144 817 1
8 818 1
52 818 1
87 818 1
114 818 1
145 818 1
9 819 1
53 819 1
88 819 1
115 819 1
146 819 1
10 820 1
54 820 1
89 820 1
116 820 1
147 820 1
11 821 1
55 821 1
90 821 1
117 821 1
148 821 1
12 822 1
56 822 1
61 822 1
118 822 1
149 822 1
13 823 1
57 823 1
62 823 1
119 823 1
150 823 1
14 824 1
58 824 1
63 824 1
120 824 1
121 824 1
15 825 1
59 825 1
64 825 1
91 825 1
122 825 1
16 826 1
60 826 1
65 826 1
92 826 1
123 826 1
17 827 1
31 827 1
66 827 1
93 827 1
124 827 1
18 828 1
32 828 1
67 828 1
94 828 1
125 828 1
19 829 1
33 829 1
68 829 1
95 829 1
126 829 1
20 830 1
34 830 1
69 830 1
96 830 1
127 830 1
21 831 1
35 831 1
70 831 1
97 831 1
128 831 1
22 832 1
36 832 1
71 832 1
98 832 1
129 832 1
23 833 1
37 833 1
72 833 1
99 833 1
130 833 1
24 834 1
38 834 1
73 834 1
100 834 1
131 834 1
25 835 1
39 835 1
74 835 1
101 835 1
132 835 1
26 836 1
40 836 1
75 836 1
102 836 1
133 836 1
27 837 1
41 837 1
76 837 1
103 837 1
134 837 1
28 838 1
42 838 1
77 838 1
104 838 1
135 838 1
29 839 1
43 839 1
78 839 1
105 839 1
136 839 1
30 840 1
44 840 1
79 840 1
106 840 1
137 840 1
151 841 1
181 841 1
211 841 1
241 841 1
271 841 1
152 842 1
182 842 1
212 842 1
242 842 1
272 842 1
153 843 1
183 843 1
213 843 1
243 843 1
273 843 1
154 844 1
184 844 1
214 844 1
244 844 1
274 844 1
155 845 1
185 845 1
215 845 1
245 845 1
275 845 1
156 846 1
186 846 1
216 846 1
246 846 1
276 846 1
157 847 1
187 847 1
217 847 1
247 847 1
277 847 1
158 848 1
188 848 1
218 848 1
248 848 1
278 848 1
159 849 1
189 849 1
219 849 1
249 849 1
279 849 1
160 850 1
190 850 1
220 850 1
250 850 1
280 850 1
161 851 1
191 851 1
221 851 1
251 851 1
281 851 1
162 852 1
192 852 1
222 852 1
252 852 1
282 852 1
163 853 1
193 853 1
223 853 1
253 853 1
283 853 1
164 854 1
194 854 1
224 854 1
254 854 1
284 854 1
165 855 1
195 855 1
225 855 1
255 855 1
285 855 1
166 856 1
196 856 1
226 856 1
256 856 1
286 856 1
167 857 1
197 857 1
227 857 1
257 857 1
287 857 1
168 858 1
198 858 1
228 858 1
258 858 1
288 858 1
169 859 1
199 859 1
229 859 1
259 859 1
289 859 1
170 860 1
200 860 1
230 860 1
260 860 1
290 860 1
171 861 1
201 861 1
231 861 1
261 861 1
291 861 1
172 862 1
202 862 1
232 862 1
262 862 1
292 862 1
173 863 1
203 863 1
233 863 1
263 863 1
293 863 1
174 864 1
204 864 1
234 864 1
264 864 1
294 864 1
175 865 1
205 865 1
235 865 1
265 865 1
295 865 1
176 866 1
206 866 1
236 866 1
266 866 1
296 866 1
177 867 1
207 867 1
237 867 1
267 867 1
297 867 1
178 868 1
208 868 1
238 868 1
268 868 1
298 868 1
179 869 1
209 869 1
239 869 1
269 869 1
299 869 1
180 870 1
210 870 1
240 870 1
270 870 1
300 870 1
151 871 1
209 871 1
227 871 1
247 871 1
276 871 1
152 872 1
210 872 1
228 872 1
248 872 1
277 872 1
153 873 1
181 873 1
229 873 1
249 873 1
278 873 1
154 874 1
182 874 1
230 874 1
250 874 1
279 874 1
155 875 1
183 875 1
231 875 1
251 875 1
280 875 1
156 876 1
184 876 1
232 876 1
252 876 1
281 876 1
157 877 1
185 877 1
233 877 1
253 877 1
282 877 1
158 878 1
186 878 1
234 878 1
254 878 1
283 878 1
159 879 1
187 879 1
235 879 1
255 879 1
284 879 1
160 880 1
188 880 1
236 880 1
256 880 1
285 880 1
161 881 1
189 881 1
237 881 1
257 881 1
286 881 1
162 882 1
190 882 1
238 882 1
258 882 1
287 882 1
163 883 1
191 883 1
239 883 1
259 883 1
288 883 1
164 884 1
192 884 1
240 884 1
260 884 1
289 884 1
165 885 1
193 885 1
211 885 1
261 885 1
290 885 1
166 886 1
194 886 1
212 886 1
262 886 1
291 886 1
167 887 1
195 887 1
213 887 1
263 887 1
292 887 1
168 888 1
196 888 1
214 888 1
264 888 1
293 888 1
169 889 1
197 889 1
215 889 1
265 889 1
294 889 1
170 890 1
198 890 1
216 890 1
266 890 1
295 890 1
171 891 1
199 891 1
217 891 1
267 891 1
296 891 1
172 892 1
200 892 1
218 892 1
268 892 1
297 892 1
173 893 1
201 893 1
219 893 1
269 893 1
298 893 1
174 894 1
202 894 1
220 894 1
270 894 1
299 894 1
175 895 1
203 895 1
221 895 1
241 895 1
300 895 1
176 896 1
204 896 1
222 896 1
242 896 1
271 896 1
177 897 1
205 897 1
223 897 1
243 897 1
272 897 1
178 898 1
206 898 1
224 898 1
244 898 1
273 898 1
179 899 1
207 899 1
225 899 1
245 899 1
274 899 1
180 900 1
208 900 1
226 900 1
246 900 1
275 900 1
151 901 1
195 901 1
230 901 1
257 901 1
288 901 1
152 902 1
196 902 1
231 902 1
258 902 1
289 902 1
153 903 1
197 903 1
232 903 1
259 903 1
290 903 1
154 904 1
198 904 1
233 904 1
260 904 1
291 904 1
155 905 1
199 905 1
234 905 1
261 905 1
292 905 1
156 906 1
200 906 1
235 906 1
262 906 1
293 906 1
157 907 1
201 907 1
236 907 1
263 907 1
294 907 1
158 908 1
202 908 1
237 908 1
264 908 1
295 908 1
159 909 1
203 909 1
238 909 1
265 909 1
296 909 1
160 910 1
204 910 1
239 910 1
266 910 1
297 910 1
161 911 1
205 911 1
240 911 1
267 911 1
298 911 1
162 912 1
206 912 1
211 912 1
268 912 1
299 912 1
163 913 1
207 913 1
212 913 1
269 913 1
300 913 1
164 914 1
208 914 1
213 914 1
270 914 1
271 914 1
165 915 1
209 915 1
214 915 1
241 915 1
272 915 1
166 916 1
210 916 1
215 916 1
242 916 1
273 916 1
167 917 1
181 917 1
216 917 1
243 917 1
274 917 1
168 918 1
182 918 1
217 918 1
244 918 1
275 918 1
169 919 1
183 919 1
218 919 1
245 919 1
276 919 1
170 920 1
184 920 1
219 920 1
246 920 1
277 920 1
171 921 1
185 921 1
220 921 1
247 921 1
278 921 1
172 922 1
186 922 1
221 922 1
248 922 1
279 922 1
173 923 1
187 923 1
222 923 1
249 923 1
280 923 1
174 924 1
188 924 1
223 924 1
250 924 1
281 924 1
175 925 1
189 925 1
224 925 1
251 925 1
282 925 1
176 926 1
190 926 1
225 926 1
252 926 1
283 926 1
177 927 1
191 927 1
226 927 1
253 927 1
284 927 1
178 928 1
192 928 1
227 928 1
254 928 1
285 928 1
179 929 1
193 929 1
228 929 1
255 929 1
286 929 1
180 930 1
194 930 1
229 930 1
256 930 1
287 930 1
301 931 1
331 931 1
361 931 1
391 931 1
421 931 1
302 932 1
332 932 1
362 932 1
392 932 1
422 932 1
303 933 1
333 933 1
363 933 1
393 933 1
423 933 1
304 934 1
334 934 1
364 934 1
394 934 1
424 934 1
305 935 1
335 935 1
365 935 1
395 935 1
425 935 1
306 936 1
336 936 1
366 936 1
396 936 1
426 936 1
307 937 1
337 937 1
367 937 1
397 937 1
427 937 1
308 938 1
338 938 1
368 938 1
398 938 1
428 938 1
309 939 1
339 939 1
369 939 1
399 939 1
429 939 1
310 940 1
340 940 1
370 940 1
400 940 1
430 940 1
311 941 1
341 941 1
371 941 1
401 941 1
431 941 1
312 942 1
342 942 1
372 942 1
402 942 1
432 942 1
313 943 1
343 943 1
373 943 1
403 943 1
433 943 1
314 944 1
344 944 1
374 944 1
404 944 1
434 944 1
315 945 1
345 945 1
375 945 1
405 945 1
435 945 1
316 946 1
346 946 1
376 946 1
406 946 1
436 946 1
317 947 1
347 947 1
377 947 1
407 947 1
437 947 1
318 948 1
348 948 1
378 948 1
408 948 1
438 948 1
319 949 1
349 949 1
379 949 1
409 949 1
439 949 1
320 950 1
350 950 1
380 950 1
410 950 1
440 950 1
321 951 1
351 951 1
381 951 1
411 951 1
441 951 1
322 952 1
352 952 1
382 952 1
412 952 1
442 952 1
323 953 1
353 953 1
383 953 1
413 953 1
443 953 1
324 954 1
354 954 1
384 954 1
414 954 1
444 954 1
325 955 1
355 955 1
385 955 1
415 955 1
445 955 1
326 956 1
356 956 1
386 956 1
416 956 1
446 956 1
327 957 1
357 957 1
387 957 1
417 957 1
447 957 1
328 958 1
358 958 1
388 958 1
418 958 1
448 958 1
329 959 1
359 959 1
389 959 1
419 959 1
449 959 1
330 960 1
360 960 1
390 960 1
420 960 1
450 960 1
301 961 1
359 961 1
377 961 1
397 961 1
426 961 1
302 962 1
360 962 1
378 962 1
398 962 1
427 962 1
303 963 1
331 963 1
379 963 1
399 963 1
428 963 1
304 964 1
332 964 1
380 964 1
400 964 1
429 964 1
305 965 1
333 965 1
381 965 1
401 965 1
430 965 1
306 966 1
334 966 1
382 966 1
402 966 1
431 966 1
307 967 1
335 967 1
383 967 1
403 967 1
432 967 1
308 968 1
336 968 1
384 968 1
404 968 1
433 968 1
309 969 1
337 969 1
385 969 1
405 969 1
434 969 1
310 970 1
338 970 1
386 970 1
406 970 1
435 970 1
311 971 1
339 971 1
387 971 1
407 971 1
436 971 1
312 972 1
340 972 1
388 972 1
408 972 1
437 972 1
313 973 1
341 973 1
389 973 1
409 973 1
438 973 1
314 974 1
342 974 1
390 974 1
410 974 1
439 974 1
315 975 1
343 975 1
361 975 1
411 975 1
440 975 1
316 976 1
344 976 1
362 976 1
412 976 1
441 976 1
317 977 1
345 977 1
363 977 1
413 977 1
442 977 1
318 978 1
346 978 1
364 978 1
414 978 1
443 978 1
319 979 1
347 979 1
365 979 1
415 979 1
444 979 1
320 980 1
348 980 1
366 980 1
416 980 1
445 980 1
321 981 1
349 981 1
367 981 1
417 981 1
446 981 1
322 982 1
350 982 1
368 982 1
418 982 1
447 982 1
323 983 1
351 983 1
369 983 1
419 983 1
448 983 1
324 984 1
352 984 1
370 984 1
420 984 1
449 984 1
325 985 1
353 985 1
371 985 1
391 985 1
450 985 1
326 986 1
354 986 1
372 986 1
392 986 1
421 986 1
327 987 1
355 987 1
373 987 1
393 987 1
422 987 1
328 988 1
356 988 1
374 988 1
394 988 1
423 988 1
329 989 1
357 989 1
375 989 1
395 989 1
424 989 1
330 990 1
358 990 1
376 990 1
396 990 1
425 990 1
301 991 1
345 991 1
380 991 1
407 991 1
438 991 1
302 992 1
346 992 1
381 992 1
408 992 1
439 992 1
303 993 1
347 993 1
382 993 1
409 993 1
440 993 1
304 994 1
348 994 1
383 994 1
410 994 1
441 994 1
305 995 1
349 995 1
384 995 1
411 995 1
442 995 1
306 996 1
350 996 1
385 996 1
412 996 1
443 996 1
307 997 1
351 997 1
386 997 1
413 997 1
444 997 1
308 998 1
352 998 1
387 998 1
414 998 1
445 998 1
309 999 1
353 999 1
388 999 1
415 999 1
446 999 1
310 1000 1
354 1000 1
389 1000 1
416 1000 1
447 1000 1
311 1001 1
355 1001 1
390 1001 1
417 1001 1
448 1001 1
312 1002 1
356 1002 1
361 1002 1
418 1002 1
449 1002 1
313 1003 1
357 1003 1
362 1003 1
419 1003 1
450 1003 1
314 1004 1
358 1004 1
363 1004 1
420 1004 1
421 1004 1
315 1005 1
359 1005 1
364 1005 1
391 1005 1
422 1005 1
316 1006 1
360 1006 1
365 1006 1
392 1006 1
423 1006 1
317 1007 1
331 1007 1
366 1007 1
393 1007 1
424 1007 1
318 1008 1
332 1008 1
367 1008 1
394 1008 1
425 1008 1
319 1009 1
333 1009 1
368 1009 1
395 1009 1
426 1009 1
320 1010 1
334 1010 1
369 1010 1
396 1010 1
427 1010 1
321 1011 1
335 1011 1
370 1011 1
397 1011 1
428 1011 1
322 1012 1
336 1012 1
371 1012 1
398 1012 1
429 1012 1
323 1013 1
337 1013 1
372 1013 1
399 1013 1
430 1013 1
324 1014 1
338 1014 1
373 1014 1
400 1014 1
431 1014 1
325 1015 1
339 1015 1
374 1015 1
401 1015 1
432 1015 1
326 1016 1
340 1016 1
375 1016 1
402 1016 1
433 1016 1
327 1017 1
341 1017 1
376 1017 1
403 1017 1
434 1017 1
328 1018 1
342 1018 1
377 1018 1
404 1018 1
435 1018 1
329 1019 1
343 1019 1
378 1019 1
405 1019 1
436 1019 1
330 1020 1
344 1020 1
379 1020 1
406 1020 1
437 1020 1
