%%MatrixMarket matrix coordinate integer general
240 544 1920
1 1 1
17 1 1
33 1 1
2 2 1
18 2 1
34 2 1
3 3 1
19 3 1
35 3 1
4 4 1
20 4 1
36 4 1
5 5 1
21 5 1
37 5 1
6 6 1
22 6 1
38 6 1
7 7 1
23 7 1
39 7 1
8 8 1
24 8 1
40 8 1
9 9 1
25 9 1
41 9 1
10 10 1
26 10 1
42 10 1
11 11 1
27 11 1
43 11 1
12 12 1
28 12 1
44 12 1
13 13 1
29 13 1
45 13 1
14 14 1
30 14 1
46 14 1
15 15 1
31 15 1
47 15 1
16 16 1
32 16 1
48 16 1
1 17 1
19 17 1
36 17 1
2 18 1
20 18 1
37 18 1
3 19 1
21 19 1
38 19 1
4 20 1
22 20 1
39 20 1
5 21 1
23 21 1
40 21 1
6 22 1
24 22 1
41 22 1
7 23 1
25 23 1
42 23 1
8 24 1
26 24 1
43 24 1
9 25 1
27 25 1
44 25 1
10 26 1
28 26 1
45 26 1
11 27 1
29 27 1
46 27 1
12 28 1
30 28 1
47 28 1
13 29 1
31 29 1
48 29 1
14 30 1
32 30 1
33 30 1
15 31 1
17 31 1
34 31 1
16 32 1
18 32 1
35 32 1
1 33 1
21 33 1
43 33 1
2 34 1
22 34 1
44 34 1
3 35 1
23 35 1
45 35 1
4 36 1
24 36 1
46 36 1
5 37 1
25 37 1
47 37 1
6 38 1
26 38 1
48 38 1
7 39 1
27 39 1
33 39 1
8 40 1
28 40 1
34 40 1
9 41 1
29 41 1
35 41 1
10 42 1
30 42 1
36 42 1
11 43 1
31 43 1
37 43 1
12 44 1
32 44 1
38 44 1
13 45 1
17 45 1
39 45 1
14 46 1
18 46 1
40 46 1
15 47 1
19 47 1
41 47 1
16 48 1
20 48 1
42 48 1
1 49 1
24 49 1
47 49 1
2 50 1
25 50 1
48 50 1
3 51 1
26 51 1
33 51 1
4 52 1
27 52 1
34 52 1
5 53 1
28 53 1
35 53 1
6 54 1
29 54 1
36 54 1
7 55 1
30 55 1
37 55 1
8 56 1
31 56 1
38 56 1
9 57 1
32 57 1
39 57 1
10 58 1
17 58 1
40 58 1
11 59 1
18 59 1
41 59 1
12 60 1
19 60 1
42 60 1
13 61 1
20 61 1
43 61 1
14 62 1
21 62 1
44 62 1
15 63 1
22 63 1
45 63 1
16 64 1
23 64 1
46 64 1
1 65 1
28 65 1
48 65 1
2 66 1
29 66 1
33 66 1
3 67 1
30 67 1
34 67 1
4 68 1
31 68 1
35 68 1
5 69 1
32 69 1
36 69 1
6 70 1
17 70 1
37 70 1
7 71 1
18 71 1
38 71 1
8 72 1
19 72 1
39 72 1
9 73 1
20 73 1
40 73 1
10 74 1
21 74 1
41 74 1
11 75 1
22 75 1
42 75 1
12 76 1
23 76 1
43 76 1
13 77 1
24 77 1
44 77 1
14 78 1
25 78 1
45 78 1
15 79 1
26 79 1
46 79 1
16 80 1
27 80 1
47 80 1
49 81 1
65 81 1
81 81 1
50 82 1
66 82 1
82 82 1
51 83 1
67 83 1
83 83 1
52 84 1
68 84 1
84 84 1
53 85 1
69 85 1
85 85 1
54 86 1
70 86 1
86 86 1
55 87 1
71 87 1
87 87 1
56 88 1
72 88 1
88 88 1
57 89 1
73 89 1
89 89 1
58 90 1
74 90 1
90 90 1
59 91 1
75 91 1
91 91 1
60 92 1
76 92 1
92 92 1
61 93 1
77 93 1
93 93 1
62 94 1
78 94 1
94 94 1
63 95 1
79 95 1
95 95 1
64 96 1
80 96 1
96 96 1
49 97 1
67 97 1
84 97 1
50 98 1
68 98 1
85 98 1
51 99 1
69 99 1
86 99 1
52 100 1
70 100 1
87 100 1
53 101 1
71 101 1
88 101 1
54 102 1
72 102 1
89 102 1
55 103 1
73 103 1
90 103 1
56 104 1
74 104 1
91 104 1
57 105 1
75 105 1
92 105 1
58 106 1
76 106 1
93 106 1
59 107 1
77 107 1
94 107 1
60 108 1
78 108 1
95 108 1
61 109 1
79 109 1
96 109 1
62 110 1
80 110 1
81 110 1
63 111 1
65 111 1
82 111 1
64 112 1
66 112 1
83 112 1
49 113 1
69 113 1
91 113 1
50 114 1
70 114 1
92 114 1
51 115 1
71 115 1
93 115 1
52 116 1
72 116 1
94 116 1
53 117 1
73 117 1
95 117 1
54 118 1
74 118 1
96 118 1
55 119 1
75 119 1
81 119 1
56 120 1
76 120 1
82 120 1
57 121 1
77 121 1
83 121 1
58 122 1
78 122 1
84 122 1
59 123 1
79 123 1
85 123 1
60 124 1
80 124 1
86 124 1
61 125 1
65 125 1
87 125 1
62 126 1
66 126 1
88 126 1
63 127 1
67 127 1
89 127 1
64 128 1
68 128 1
90 128 1
49 129 1
72 129 1
95 129 1
50 130 1
73 130 1
96 130 1
51 131 1
74 131 1
81 131 1
52 132 1
75 132 1
82 132 1
53 133 1
76 133 1
83 133 1
54 134 1
77 134 1
84 134 1
55 135 1
78 135 1
85 135 1
56 136 1
79 136 1
86 136 1
57 137 1
80 137 1
87 137 1
58 138 1
65 138 1
88 138 1
59 139 1
66 139 1
89 139 1
60 140 1
67 140 1
90 140 1
61 141 1
68 141 1
91 141 1
62 142 1
69 142 1
92 142 1
63 143 1
70 143 1
93 143 1
64 144 1
71 144 1
94 144 1
49 145 1
76 145 1
96 145 1
50 146 1
77 146 1
81 146 1
51 147 1
78 147 1
82 147 1
52 148 1
79 148 1
83 148 1
53 149 1
80 149 1
84 149 1
54 150 1
65 150 1
85 150 1
55 151 1
66 151 1
86 151 1
56 152 1
67 152 1
87 152 1
57 153 1
68 153 1
88 153 1
58 154 1
69 154 1
89 154 1
59 155 1
70 155 1
90 155 1
60 156 1
71 156 1
91 156 1
61 157 1
72 157 1
92 157 1
62 158 1
73 158 1
93 158 1
63 159 1
74 159 1
94 159 1
64 160 1
75 160 1
95 160 1
97 161 1
113 161 1
129 161 1
98 162 1
114 162 1
130 162 1
99 163 1
115 163 1
131 163 1
100 164 1
116 164 1
132 164 1
101 165 1
117 165 1
133 165 1
102 166 1
118 166 1
134 166 1
103 167 1
119 167 1
135 167 1
104 168 1
120 168 1
136 168 1
105 169 1
121 169 1
137 169 1
106 170 1
122 170 1
138 170 1
107 171 1
123 171 1
139 171 1
108 172 1
124 172 1
140 172 1
109 173 1
125 173 1
141 173 1
110 174 1
126 174 1
142 174 1
111 175 1
127 175 1
143 175 1
112 176 1
128 176 1
144 176 1
97 177 1
115 177 1
132 177 1
98 178 1
116 178 1
133 178 1
99 179 1
117 179 1
134 179 1
100 180 1
118 180 1
135 180 1
101 181 1
119 181 1
136 181 1
102 182 1
120 182 1
137 182 1
103 183 1
121 183 1
138 183 1
104 184 1
122 184 1
139 184 1
105 185 1
123 185 1
140 185 1
106 186 1
124 186 1
141 186 1
107 187 1
125 187 1
142 187 1
108 188 1
126 188 1
143 188 1
109 189 1
127 189 1
144 189 1
110 190 1
128 190 1
129 190 1
111 191 1
113 191 1
130 191 1
112 192 1
114 192 1
131 192 1
97 193 1
117 193 1
139 193 1
98 194 1
118 194 1
140 194 1
99 195 1
119 195 1
141 195 1
100 196 1
120 196 1
142 196 1
101 197 1
121 197 1
143 197 1
102 198 1
122 198 1
144 198 1
103 199 1
123 199 1
129 199 1
104 200 1
124 200 1
130 200 1
105 201 1
125 201 1
131 201 1
106 202 1
126 202 1
132 202 1
107 203 1
127 203 1
133 203 1
108 204 1
128 204 1
134 204 1
109 205 1
113 205 1
135 205 1
110 206 1
114 206 1
136 206 1
111 207 1
115 207 1
137 207 1
112 208 1
116 208 1
138 208 1
97 209 1
120 209 1
143 209 1
98 210 1
121 210 1
144 210 1
99 211 1
122 211 1
129 211 1
100 212 1
123 212 1
130 212 1
101 213 1
124 213 1
131 213 1
102 214 1
125 214 1
132 214 1
103 215 1
126 215 1
133 215 1
104 216 1
127 216 1
134 216 1
105 217 1
128 217 1
135 217 1
106 218 1
113 218 1
136 218 1
107 219 1
114 219 1
137 219 1
108 220 1
115 220 1
138 220 1
109 221 1
116 221 1
139 221 1
110 222 1
117 222 1
140 222 1
111 223 1
118 223 1
141 223 1
112 224 1
119 224 1
142 224 1
97 225 1
124 225 1
144 225 1
98 226 1
125 226 1
129 226 1
99 227 1
126 227 1
130 227 1
100 228 1
127 228 1
131 228 1
101 229 1
128 229 1
132 229 1
102 230 1
113 230 1
133 230 1
103 231 1
114 231 1
134 231 1
104 232 1
115 232 1
135 232 1
105 233 1
116 233 1
136 233 1
106 234 1
117 234 1
137 234 1
107 235 1
118 235 1
138 235 1
108 236 1
119 236 1
139 236 1
109 237 1
120 237 1
140 237 1
110 238 1
121 238 1
141 238 1
111 239 1
122 239 1
142 239 1
112 240 1
123 240 1
143 240 1
145 241 1
161 241 1
177 241 1
146 242 1
162 242 1
178 242 1
147 243 1
163 243 1
179 243 1
148 244 1
164 244 1
180 244 1
149 245 1
165 245 1
181 245 1
150 246 1
166 246 1
182 246 1
151 247 1
167 247 1
183 247 1
152 248 1
168 248 1
184 248 1
153 249 1
169 249 1
185 249 1
154 250 1
170 250 1
186 250 1
155 251 1
171 251 1
187 251 1
156 252 1
172 252 1
188 252 1
157 253 1
173 253 1
189 253 1
158 254 1
174 254 1
190 254 1
159 255 1
175 255 1
191 255 1
160 256 1
176 256 1
192 256 1
145 257 1
163 257 1
180 257 1
146 258 1
164 258 1
181 258 1
147 259 1
165 259 1
182 259 1
148 260 1
166 260 1
183 260 1
149 261 1
167 261 1
184 261 1
150 262 1
168 262 1
185 262 1
151 263 1
169 263 1
186 263 1
152 264 1
170 264 1
187 264 1
153 265 1
171 265 1
188 265 1
154 266 1
172 266 1
189 266 1
155 267 1
173 267 1
190 267 1
156 268 1
174 268 1
191 268 1
157 269 1
175 269 1
192 269 1
158 270 1
176 270 1
177 270 1
159 271 1
161 271 1
178 271 1
160 272 1
162 272 1
179 272 1
145 273 1
165 273 1
187 273 1
146 274 1
166 274 1
188 274 1
147 275 1
167 275 1
189 275 1
148 276 1
168 276 1
190 276 1
149 277 1
169 277 1
191 277 1
150 278 1
170 278 1
192 278 1
151 279 1
171 279 1
177 279 1
152 280 1
172 280 1
178 280 1
153 281 1
173 281 1
179 281 1
154 282 1
174 282 1
180 282 1
155 283 1
175 283 1
181 283 1
156 284 1
176 284 1
182 284 1
157 285 1
161 285 1
183 285 1
158 286 1
162 286 1
184 286 1
159 287 1
163 287 1
185 287 1
160 288 1
164 288 1
186 288 1
145 289 1
168 289 1
191 289 1
146 290 1
169 290 1
192 290 1
147 291 1
170 291 1
177 291 1
148 292 1
171 292 1
178 292 1
149 293 1
172 293 1
179 293 1
150 294 1
173 294 1
180 294 1
151 295 1
174 295 1
181 295 1
152 296 1
175 296 1
182 296 1
153 297 1
176 297 1
183 297 1
154 298 1
161 298 1
184 298 1
155 299 1
162 299 1
185 299 1
156 300 1
163 300 1
186 300 1
157 301 1
164 301 1
187 301 1
158 302 1
165 302 1
188 302 1
159 303 1
166 303 1
189 303 1
160 304 1
167 304 1
190 304 1
145 305 1
172 305 1
192 305 1
146 306 1
173 306 1
177 306 1
147 307 1
174 307 1
178 307 1
148 308 1
175 308 1
179 308 1
149 309 1
176 309 1
180 309 1
150 310 1
161 310 1
181 310 1
151 311 1
162 311 1
182 311 1
152 312 1
163 312 1
183 312 1
153 313 1
164 313 1
184 313 1
154 314 1
165 314 1
185 314 1
155 315 1
166 315 1
186 315 1
156 316 1
167 316 1
187 316 1
157 317 1
168 317 1
188 317 1
158 318 1
169 318 1
189 318 1
159 319 1
170 319 1
190 319 1
160 320 1
171 320 1
191 320 1
193 321 1
209 321 1
225 321 1
194 322 1
210 322 1
226 322 1
195 323 1
211 323 1
227 323 1
196 324 1
212 324 1
228 324 1
197 325 1
213 325 1
229 325 1
198 326 1
214 326 1
230 326 1
199 327 1
215 327 1
231 327 1
200 328 1
216 328 1
232 328 1
201 329 1
217 329 1
233 329 1
202 330 1
218 330 1
234 330 1
203 331 1
219 331 1
235 331 1
204 332 1
220 332 1
236 332 1
205 333 1
221 333 1
237 333 1
206 334 1
222 334 1
238 334 1
207 335 1
223 335 1
239 335 1
208 336 1
224 336 1
240 336 1
193 337 1
211 337 1
228 337 1
194 338 1
212 338 1
229 338 1
195 339 1
213 339 1
230 339 1
196 340 1
214 340 1
231 340 1
197 341 1
215 341 1
232 341 1
198 342 1
216 342 1
233 342 1
199 343 1
217 343 1
234 343 1
200 344 1
218 344 1
235 344 1
201 345 1
219 345 1
236 345 1
202 346 1
220 346 1
237 346 1
203 347 1
221 347 1
238 347 1
204 348 1
222 348 1
239 348 1
205 349 1
223 349 1
240 349 1
206 350 1
224 350 1
225 350 1
207 351 1
209 351 1
226 351 1
208 352 1
210 352 1
227 352 1
193 353 1
213 353 1
235 353 1
194 354 1
214 354 1
236 354 1
195 355 1
215 355 1
237 355 1
196 356 1
216 356 1
238 356 1
197 357 1
217 357 1
239 357 1
198 358 1
218 358 1
240 358 1
199 359 1
219 359 1
225 359 1
200 360 1
220 360 1
226 360 1
201 361 1
221 361 1
227 361 1
202 362 1
222 362 1
228 362 1
203 363 1
223 363 1
229 363 1
204 364 1
224 364 1
230 364 1
205 365 1
209 365 1
231 365 1
206 366 1
210 366 1
232 366 1
207 367 1
211 367 1
233 367 1
208 368 1
212 368 1
234 368 1
193 369 1
216 369 1
239 369 1
194 370 1
217 370 1
240 370 1
195 371 1
218 371 1
225 371 1
196 372 1
219 372 1
226 372 1
197 373 1
220 373 1
227 373 1
198 374 1
221 374 1
228 374 1
199 375 1
222 375 1
229 375 1
200 376 1
223 376 1
230 376 1
201 377 1
224 377 1
231 377 1
202 378 1
209 378 1
232 378 1
203 379 1
210 379 1
233 379 1
204 380 1
211 380 1
234 380 1
205 381 1
212 381 1
235 381 1
206 382 1
213 382 1
236 382 1
207 383 1
214 383 1
237 383 1
208 384 1
215 384 1
238 384 1
193 385 1
220 385 1
240 385 1
194 386 1
221 386 1
225 386 1
195 387 1
222 387 1
226 387 1
196 388 1
223 388 1
227 388 1
197 389 1
224 389 1
228 389 1
198 390 1
209 390 1
229 390 1
199 391 1
210 391 1
230 391 1
200 392 1
211 392 1
231 392 1
201 393 1
212 393 1
232 393 1
202 394 1
213 394 1
233 394 1
203 395 1
214 395 1
234 395 1
204 396 1
215 396 1
235 396 1
205 397 1
216 397 1
236 397 1
206 398 1
217 398 1
237 398 1
207 399 1
218 399 1
238 399 1
208 400 1
219 400 1
239 400 1
1 401 1
49 401 1
97 401 1
145 401 1
193 401 1
2 402 1
50 402 1
98 402 1
146 402 1
194 402 1
3 403 1
51 403 1
99 403 1
147 403 1
195 403 1
4 404 1
52 404 1
100 404 1
148 404 1
196 404 1
5 405 1
53 405 1
101 405 1
149 405 1
197 405 1
6 406 1
54 406 1
102 406 1
150 406 1
198 406 1
7 407 1
55 407 1
103 407 1
151 407 1
199 407 1
8 408 1
56 408 1
104 408 1
152 408 1
200 408 1
9 409 1
57 409 1
105 409 1
153 409 1
201 409 1
10 410 1
58 410 1
106 410 1
154 410 1
202 410 1
11 411 1
59 411 1
107 411 1
155 411 1
203 411 1
12 412 1
60 412 1
108 412 1
156 412 1
204 412 1
13 413 1
61 413 1
109 413 1
157 413 1
205 413 1
14 414 1
62 414 1
110 414 1
158 414 1
206 414 1
15 415 1
63 415 1
111 415 1
159 415 1
207 415 1
16 416 1
64 416 1
112 416 1
160 416 1
208 416 1
17 417 1
65 417 1
113 417 1
161 417 1
209 417 1
18 418 1
66 418 1
114 418 1
162 418 1
210 418 1
19 419 1
67 419 1
115 419 1
163 419 1
211 419 1
20 420 1
68 420 1
116 420 1
164 420 1
212 420 1
21 421 1
69 421 1
117 421 1
165 421 1
213 421 1
22 422 1
70 422 1
118 422 1
166 422 1
214 422 1
23 423 1
71 423 1
119 423 1
167 423 1
215 423 1
24 424 1
72 424 1
120 424 1
168 424 1
216 424 1
25 425 1
73 425 1
121 425 1
169 425 1
217 425 1
26 426 1
74 426 1
122 426 1
170 426 1
218 426 1
27 427 1
75 427 1
123 427 1
171 427 1
219 427 1
28 428 1
76 428 1
124 428 1
172 428 1
220 428 1
29 429 1
77 429 1
125 429 1
173 429 1
221 429 1
30 430 1
78 430 1
126 430 1
174 430 1
222 430 1
31 431 1
79 431 1
127 431 1
175 431 1
223 431 1
32 432 1
80 432 1
128 432 1
176 432 1
224 432 1
33 433 1
81 433 1
129 433 1
177 433 1
225 433 1
34 434 1
82 434 1
130 434 1
178 434 1
226 434 1
35 435 1
83 435 1
131 435 1
179 435 1
227 435 1
36 436 1
84 436 1
132 436 1
180 436 1
228 436 1
37 437 1
85 437 1
133 437 1
181 437 1
229 437 1
38 438 1
86 438 1
134 438 1
182 438 1
230 438 1
39 439 1
87 439 1
135 439 1
183 439 1
231 439 1
40 440 1
88 440 1
136 440 1
184 440 1
232 440 1
41 441 1
89 441 1
137 441 1
185 441 1
233 441 1
42 442 1
90 442 1
138 442 1
186 442 1
234 442 1
43 443 1
91 443 1
139 443 1
187 443 1
235 443 1
44 444 1
92 444 1
140 444 1
188 444 1
236 444 1
45 445 1
93 445 1
141 445 1
189 445 1
237 445 1
46 446 1
94 446 1
142 446 1
190 446 1
238 446 1
47 447 1
95 447 1
143 447 1
191 447 1
239 447 1
48 448 1
96 448 1
144 448 1
192 448 1
240 448 1
1 449 1
63 449 1
109 449 1
154 449 1
198 449 1
2 450 1
64 450 1
110 450 1
155 450 1
199 450 1
3 451 1
49 451 1
111 451 1
156 451 1
200 451 1
4 452 1
50 452 1
112 452 1
157 452 1
201 452 1
5 453 1
51 453 1
97 453 1
158 453 1
202 453 1
6 454 1
52 454 1
98 454 1
159 454 1
203 454 1
7 455 1
53 455 1
99 455 1
160 455 1
204 455 1
8 456 1
54 456 1
100 456 1
145 456 1
205 456 1
9 457 1
55 457 1
101 457 1
146 457 1
206 457 1
10 458 1
56 458 1
102 458 1
147 458 1
207 458 1
11 459 1
57 459 1
103 459 1
148 459 1
208 459 1
12 460 1
58 460 1
104 460 1
149 460 1
193 460 1
13 461 1
59 461 1
105 461 1
150 461 1
194 461 1
14 462 1
60 462 1
106 462 1
151 462 1
195 462 1
15 463 1
61 463 1
107 463 1
152 463 1
196 463 1
16 464 1
62 464 1
108 464 1
153 464 1
197 464 1
17 465 1
79 465 1
125 465 1
170 465 1
214 465 1
18 466 1
80 466 1
126 466 1
171 466 1
215 466 1
19 467 1
65 467 1
127 467 1
172 467 1
216 467 1
20 468 1
66 468 1
128 468 1
173 468 1
217 468 1
21 469 1
67 469 1
113 469 1
174 469 1
218 469 1
22 470 1
68 470 1
114 470 1
175 470 1
219 470 1
23 471 1
69 471 1
115 471 1
176 471 1
220 471 1
24 472 1
70 472 1
116 472 1
161 472 1
221 472 1
25 473 1
71 473 1
117 473 1
162 473 1
222 473 1
26 474 1
72 474 1
118 474 1
163 474 1
223 474 1
27 475 1
73 475 1
119 475 1
164 475 1
224 475 1
28 476 1
74 476 1
120 476 1
165 476 1
209 476 1
29 477 1
75 477 1
121 477 1
166 477 1
210 477 1
30 478 1
76 478 1
122 478 1
167 478 1
211 478 1
31 479 1
77 479 1
123 479 1
168 479 1
212 479 1
32 480 1
78 480 1
124 480 1
169 480 1
213 480 1
33 481 1
95 481 1
141 481 1
186 481 1
230 481 1
34 482 1
96 482 1
142 482 1
187 482 1
231 482 1
35 483 1
81 483 1
143 483 1
188 483 1
232 483 1
36 484 1
82 484 1
144 484 1
189 484 1
233 484 1
37 485 1
83 485 1
129 485 1
190 485 1
234 485 1
38 486 1
84 486 1
130 486 1
191 486 1
235 486 1
39 487 1
85 487 1
131 487 1
192 487 1
236 487 1
40 488 1
86 488 1
132 488 1
177 488 1
237 488 1
41 489 1
87 489 1
133 489 1
178 489 1
238 489 1
42 490 1
88 490 1
134 490 1
179 490 1
239 490 1
43 491 1
89 491 1
135 491 1
180 491 1
240 491 1
44 492 1
90 492 1
136 492 1
181 492 1
225 492 1
45 493 1
91 493 1
137 493 1
182 493 1
226 493 1
46 494 1
92 494 1
138 494 1
183 494 1
227 494 1
47 495 1
93 495 1
139 495 1
184 495 1
228 495 1
48 496 1
94 496 1
140 496 1
185 496 1
229 496 1
1 497 1
62 497 1
103 497 1
147 497 1
194 497 1
2 498 1
63 498 1
104 498 1
148 498 1
195 498 1
3 499 1
64 499 1
105 499 1
149 499 1
196 499 1
4 500 1
49 500 1
106 500 1
150 500 1
197 500 1
5 501 1
50 501 1
107 501 1
151 501 1
198 501 1
6 502 1
51 502 1
108 502 1
152 502 1
199 502 1
7 503 1
52 503 1
109 503 1
153 503 1
200 503 1
8 504 1
53 504 1
110 504 1
154 504 1
201 504 1
9 505 1
54 505 1
111 505 1
155 505 1
202 505 1
10 506 1
55 506 1
112 506 1
156 506 1
203 506 1
11 507 1
56 507 1
97 507 1
157 507 1
204 507 1
12 508 1
57 508 1
98 508 1
158 508 1
205 508 1
13 509 1
58 509 1
99 509 1
159 509 1
206 509 1
14 510 1
59 510 1
100 510 1
160 510 1
207 510 1
15 511 1
60 511 1
101 511 1
145 511 1
208 511 1
16 512 1
61 512 1
102 512 1
146 512 1
193 512 1
17 513 1
78 513 1
119 513 1
163 513 1
210 513 1
18 514 1
79 514 1
120 514 1
164 514 1
211 514 1
19 515 1
80 515 1
121 515 1
165 515 1
212 515 1
20 516 1
65 516 1
122 516 1
166 516 1
213 516 1
21 517 1
66 517 1
123 517 1
167 517 1
214 517 1
22 518 1
67 518 1
124 518 1
168 518 1
215 518 1
23 519 1
68 519 1
125 519 1
169 519 1
216 519 1
24 520 1
69 520 1
126 520 1
170 520 1
217 520 1
25 521 1
70 521 1
127 521 1
171 521 1
218 521 1
26 522 1
71 522 1
128 522 1
172 522 1
219 522 1
27 523 1
72 523 1
113 523 1
173 523 1
220 523 1
28 524 1
73 524 1
114 524 1
174 524 1
221 524 1
29 525 1
74 525 1
115 525 1
175 525 1
222 525 1
30 526 1
75 526 1
116 526 1
176 526 1
223 526 1
31 527 1
76 527 1
117 527 1
161 527 1
224 527 1
32 528 1
77 528 1
118 528 1
162 528 1
209 528 1
33 529 1
94 529 1
135 529 1
179 529 1
226 529 1
34 530 1
95 530 1
136 530 1
180 530 1
227 530 1
35 531 1
96 531 1
137 531 1
181 531 1
228 531 1
36 532 1
81 532 1
138 532 1
182 532 1
229 532 1
37 533 1
82 533 1
139 533 1
183 533 1
230 533 1
38 534 1
83 534 1
140 534 1
184 534 1
231 534 1
39 535 1
84 535 1
141 535 1
185 535 1
232 535 1
40 536 1
85 536 1
142 536 1
186 536 1
233 536 1
41 537 1
86 537 1
143 537 1
187 537 1
234 537 1
42 538 1
87 538 1
144 538 1
188 538 1
235 538 1
43 539 1
88 539 1
129 539 1
189 539 1
236 539 1
44 540 1
89 540 1
130 540 1
190 540 1
237 540 1
45 541 1
90 541 1
131 541 1
191 541 1
238 541 1
46 542 1
91 542 1
132 542 1
192 542 1
239 542 1
47 543 1
92 543 1
133 543 1
177 543 1
240 543 1
48 544 1
93 544 1
134 544 1
178 544 1
225 544 1
