%%MatrixMarket matrix coordinate integer general
80 544 6866
1 1 1
4 1 1
5 1 1
7 1 1
8 1 1
9 1 1
11 1 1
14 1 1
15 1 1
17 1 1
23 1 1
24 1 1
25 1 1
26 1 1
28 1 1
29 1 1
30 1 1
31 1 1
38 1 1
40 1 1
42 1 1
43 1 1
44 1 1
46 1 1
50 1 1
51 1 1
54 1 1
56 1 1
60 1 1
62 1 1
63 1 1
64 1 1
65 1 1
67 1 1
68 1 1
69 1 1
72 1 1
73 1 1
75 1 1
77 1 1
2 2 1
4 2 1
5 2 1
6 2 1
9 2 1
10 2 1
12 2 1
14 2 1
16 2 1
17 2 1
18 2 1
23 2 1
25 2 1
27 2 1
29 2 1
33 2 1
34 2 1
40 2 1
44 2 1
45 2 1
46 2 1
47 2 1
48 2 1
49 2 1
51 2 1
53 2 1
56 2 1
58 2 1
59 2 1
62 2 1
64 2 1
66 2 1
70 2 1
71 2 1
72 2 1
74 2 1
78 2 1
1 3 1
2 3 1
3 3 1
5 3 1
7 3 1
10 3 1
13 3 1
15 3 1
17 3 1
18 3 1
20 3 1
24 3 1
38 3 1
43 3 1
45 3 1
47 3 1
51 3 1
52 3 1
53 3 1
55 3 1
56 3 1
60 3 1
61 3 1
64 3 1
65 3 1
66 3 1
67 3 1
68 3 1
69 3 1
73 3 1
76 3 1
77 3 1
79 3 1
3 4 1
4 4 1
6 4 1
7 4 1
8 4 1
10 4 1
11 4 1
12 4 1
14 4 1
15 4 1
16 4 1
18 4 1
19 4 1
20 4 1
23 4 1
24 4 1
25 4 1
26 4 1
28 4 1
29 4 1
30 4 1
38 4 1
42 4 1
44 4 1
48 4 1
50 4 1
53 4 1
55 4 1
56 4 1
57 4 1
59 4 1
63 4 1
66 4 1
67 4 1
70 4 1
71 4 1
72 4 1
73 4 1
77 4 1
2 5 1
4 5 1
6 5 1
8 5 1
10 5 1
12 5 1
13 5 1
16 5 1
17 5 1
19 5 1
20 5 1
22 5 1
25 5 1
29 5 1
31 5 1
33 5 1
34 5 1
40 5 1
45 5 1
46 5 1
48 5 1
49 5 1
50 5 1
51 5 1
55 5 1
57 5 1
60 5 1
61 5 1
63 5 1
64 5 1
65 5 1
69 5 1
70 5 1
73 5 1
74 5 1
77 5 1
79 5 1
80 5 1
2 6 1
3 6 1
5 6 1
8 6 1
10 6 1
11 6 1
13 6 1
15 6 1
18 6 1
19 6 1
21 6 1
22 6 1
24 6 1
25 6 1
27 6 1
28 6 1
31 6 1
38 6 1
40 6 1
42 6 1
43 6 1
47 6 1
48 6 1
49 6 1
51 6 1
52 6 1
53 6 1
54 6 1
57 6 1
59 6 1
60 6 1
62 6 1
63 6 1
66 6 1
68 6 1
69 6 1
70 6 1
71 6 1
72 6 1
3 7 1
4 7 1
8 7 1
11 7 1
12 7 1
14 7 1
16 7 1
20 7 1
21 7 1
22 7 1
23 7 1
24 7 1
27 7 1
28 7 1
29 7 1
30 7 1
33 7 1
46 7 1
48 7 1
52 7 1
53 7 1
54 7 1
55 7 1
58 7 1
59 7 1
61 7 1
64 7 1
68 7 1
73 7 1
74 7 1
77 7 1
1 8 1
2 8 1
4 8 1
8 8 1
9 8 1
12 8 1
13 8 1
14 8 1
17 8 1
19 8 1
21 8 1
24 8 1
26 8 1
31 8 1
33 8 1
34 8 1
38 8 1
40 8 1
42 8 1
43 8 1
46 8 1
47 8 1
50 8 1
54 8 1
55 8 1
56 8 1
57 8 1
58 8 1
60 8 1
61 8 1
62 8 1
63 8 1
65 8 1
66 8 1
67 8 1
68 8 1
70 8 1
72 8 1
74 8 1
77 8 1
2 9 1
3 9 1
5 9 1
9 9 1
12 9 1
14 9 1
15 9 1
18 9 1
22 9 1
25 9 1
26 9 1
27 9 1
28 9 1
30 9 1
31 9 1
44 9 1
46 9 1
47 9 1
49 9 1
51 9 1
57 9 1
58 9 1
59 9 1
65 9 1
70 9 1
71 9 1
72 9 1
79 9 1
1 10 1
3 10 1
4 10 1
7 10 1
9 10 1
10 10 1
14 10 1
15 10 1
16 10 1
17 10 1
20 10 1
21 10 1
27 10 1
28 10 1
29 10 1
30 10 1
33 10 1
34 10 1
38 10 1
43 10 1
44 10 1
45 10 1
46 10 1
47 10 1
50 10 1
51 10 1
52 10 1
53 10 1
54 10 1
60 10 1
61 10 1
62 10 1
63 10 1
64 10 1
65 10 1
67 10 1
68 10 1
69 10 1
71 10 1
73 10 1
74 10 1
77 10 1
1 11 1
2 11 1
6 11 1
7 11 1
13 11 1
14 11 1
15 11 1
16 11 1
17 11 1
18 11 1
19 11 1
23 11 1
24 11 1
26 11 1
28 11 1
31 11 1
33 11 1
34 11 1
38 11 1
42 11 1
44 11 1
45 11 1
47 11 1
48 11 1
49 11 1
50 11 1
53 11 1
54 11 1
55 11 1
56 11 1
58 11 1
59 11 1
62 11 1
66 11 1
70 11 1
71 11 1
73 11 1
74 11 1
77 11 1
1 12 1
3 12 1
5 12 1
6 12 1
7 12 1
8 12 1
9 12 1
10 12 1
12 12 1
13 12 1
15 12 1
16 12 1
18 12 1
20 12 1
22 12 1
23 12 1
25 12 1
26 12 1
27 12 1
30 12 1
31 12 1
33 12 1
42 12 1
45 12 1
49 12 1
50 12 1
51 12 1
52 12 1
55 12 1
56 12 1
57 12 1
58 12 1
60 12 1
61 12 1
64 12 1
65 12 1
67 12 1
68 12 1
69 12 1
70 12 1
79 12 1
4 13 1
6 13 1
10 13 1
11 13 1
13 13 1
15 13 1
16 13 1
19 13 1
20 13 1
21 13 1
27 13 1
30 13 1
34 13 1
40 13 1
42 13 1
43 13 1
44 13 1
49 13 1
50 13 1
52 13 1
53 13 1
57 13 1
59 13 1
60 13 1
62 13 1
63 13 1
66 13 1
67 13 1
71 13 1
72 13 1
73 13 1
79 13 1
1 14 1
2 14 1
5 14 1
7 14 1
8 14 1
11 14 1
13 14 1
16 14 1
19 14 1
22 14 1
23 14 1
24 14 1
26 14 1
28 14 1
29 14 1
30 14 1
31 14 1
34 14 1
40 14 1
43 14 1
44 14 1
45 14 1
46 14 1
48 14 1
49 14 1
52 14 1
54 14 1
55 14 1
59 14 1
61 14 1
64 14 1
65 14 1
69 14 1
73 14 1
79 14 1
3 15 1
5 15 1
6 15 1
8 15 1
9 15 1
10 15 1
11 15 1
12 15 1
13 15 1
14 15 1
21 15 1
22 15 1
23 15 1
25 15 1
26 15 1
27 15 1
29 15 1
33 15 1
34 15 1
38 15 1
40 15 1
42 15 1
43 15 1
45 15 1
47 15 1
48 15 1
52 15 1
54 15 1
56 15 1
57 15 1
58 15 1
61 15 1
62 15 1
63 15 1
66 15 1
67 15 1
68 15 1
69 15 1
71 15 1
72 15 1
21 16 1
58 16 1
42 17 1
77 17 1
38 18 1
70 18 1
43 19 1
60 20 1
59 21 1
61 22 1
64 23 1
66 24 1
62 25 1
63 26 1
67 27 1
68 28 1
69 29 1
65 30 1
71 31 1
72 32 1
73 33 1
74 35 1
45 47 1
47 47 1
48 47 1
50 47 1
52 47 1
53 47 1
54 47 1
57 47 1
70 47 1
77 47 1
78 47 1
1 48 1
40 48 1
44 48 1
46 48 1
49 48 1
51 48 1
55 48 1
56 48 1
58 48 1
70 48 1
73 48 1
75 48 1
76 48 1
77 48 1
80 48 1
4 49 1
2 50 1
3 51 1
5 52 1
11 52 1
14 52 1
15 52 1
17 52 1
18 52 1
20 52 1
21 52 1
22 52 1
42 52 1
44 52 1
45 52 1
46 52 1
47 52 1
48 52 1
49 52 1
50 52 1
51 52 1
52 52 1
53 52 1
54 52 1
55 52 1
59 52 1
60 52 1
68 52 1
70 52 1
75 52 1
76 52 1
78 52 1
10 53 1
14 53 1
16 53 1
17 53 1
19 53 1
22 53 1
31 53 1
38 53 1
40 53 1
42 53 1
48 53 1
50 53 1
54 53 1
57 53 1
58 53 1
60 53 1
61 53 1
68 53 1
69 53 1
70 53 1
74 53 1
79 53 1
9 54 1
11 54 1
13 54 1
18 54 1
21 54 1
22 54 1
27 54 1
38 54 1
43 54 1
44 54 1
45 54 1
47 54 1
49 54 1
52 54 1
53 54 1
54 54 1
56 54 1
57 54 1
58 54 1
59 54 1
64 54 1
65 54 1
69 54 1
70 54 1
73 54 1
74 54 1
75 54 1
77 54 1
78 54 1
79 54 1
80 54 1
8 55 1
10 55 1
15 55 1
17 55 1
20 55 1
21 55 1
25 55 1
40 55 1
43 55 1
45 55 1
46 55 1
48 55 1
51 55 1
52 55 1
54 55 1
55 55 1
56 55 1
58 55 1
60 55 1
61 55 1
65 55 1
66 55 1
70 55 1
71 55 1
74 55 1
75 55 1
76 55 1
78 55 1
80 55 1
7 56 1
9 56 1
10 56 1
11 56 1
14 56 1
15 56 1
16 56 1
17 56 1
19 56 1
20 56 1
21 56 1
22 56 1
26 56 1
42 56 1
45 56 1
49 56 1
52 56 1
55 56 1
57 56 1
58 56 1
62 56 1
64 56 1
68 56 1
70 56 1
71 56 1
72 56 1
73 56 1
74 56 1
77 56 1
6 57 1
8 57 1
9 57 1
10 57 1
13 57 1
14 57 1
16 57 1
17 57 1
19 57 1
20 57 1
24 57 1
38 57 1
44 57 1
48 57 1
49 57 1
52 57 1
55 57 1
56 57 1
59 57 1
60 57 1
63 57 1
66 57 1
68 57 1
69 57 1
70 57 1
72 57 1
73 57 1
74 57 1
76 57 1
77 57 1
80 57 1
7 58 1
8 58 1
9 58 1
11 58 1
12 58 1
13 58 1
14 58 1
17 58 1
18 58 1
19 58 1
22 58 1
42 58 1
43 58 1
44 58 1
47 58 1
48 58 1
50 58 1
51 58 1
53 58 1
59 58 1
61 58 1
62 58 1
65 58 1
67 58 1
69 58 1
74 58 1
75 58 1
78 58 1
80 58 1
6 59 1
7 59 1
8 59 1
11 59 1
15 59 1
17 59 1
18 59 1
20 59 1
21 59 1
22 59 1
23 59 1
38 59 1
40 59 1
44 59 1
47 59 1
48 59 1
49 59 1
50 59 1
52 59 1
54 59 1
55 59 1
57 59 1
60 59 1
61 59 1
63 59 1
64 59 1
65 59 1
68 59 1
70 59 1
71 59 1
73 59 1
76 59 1
79 59 1
6 60 1
7 60 1
10 60 1
11 60 1
16 60 1
17 60 1
19 60 1
22 60 1
28 60 1
40 60 1
42 60 1
43 60 1
45 60 1
46 60 1
50 60 1
52 60 1
55 60 1
56 60 1
58 60 1
60 60 1
64 60 1
66 60 1
67 60 1
68 60 1
69 60 1
71 60 1
72 60 1
73 60 1
74 60 1
75 60 1
76 60 1
77 60 1
80 60 1
6 61 1
9 61 1
11 61 1
13 61 1
17 61 1
20 61 1
33 61 1
38 61 1
44 61 1
47 61 1
48 61 1
50 61 1
54 61 1
55 61 1
62 61 1
65 61 1
66 61 1
69 61 1
70 61 1
72 61 1
73 61 1
76 61 1
78 61 1
79 61 1
8 62 1
14 62 1
15 62 1
17 62 1
18 62 1
19 62 1
29 62 1
40 62 1
42 62 1
43 62 1
44 62 1
47 62 1
48 62 1
49 62 1
50 62 1
52 62 1
53 62 1
54 62 1
58 62 1
62 62 1
63 62 1
65 62 1
70 62 1
71 62 1
74 62 1
76 62 1
78 62 1
7 63 1
11 63 1
16 63 1
18 63 1
20 63 1
22 63 1
30 63 1
38 63 1
40 63 1
44 63 1
45 63 1
48 63 1
49 63 1
50 63 1
51 63 1
52 63 1
55 63 1
58 63 1
60 63 1
63 63 1
67 63 1
71 63 1
72 63 1
73 63 1
74 63 1
75 63 1
76 63 1
77 63 1
79 63 1
6 64 1
11 64 1
13 64 1
14 64 1
17 64 1
18 64 1
19 64 1
22 64 1
34 64 1
43 64 1
45 64 1
48 64 1
50 64 1
52 64 1
53 64 1
55 64 1
60 64 1
67 64 1
70 64 1
72 64 1
73 64 1
76 64 1
78 64 1
80 64 1
32 65 1
1 66 1
2 66 1
3 66 1
4 66 1
5 66 1
7 66 1
8 66 1
10 66 1
11 66 1
12 66 1
16 66 1
19 66 1
20 66 1
22 66 1
24 66 1
26 66 1
27 66 1
28 66 1
30 66 1
35 66 1
36 66 1
38 66 1
41 66 1
42 66 1
43 66 1
47 66 1
49 66 1
50 66 1
52 66 1
53 66 1
57 66 1
62 66 1
63 66 1
64 66 1
66 66 1
68 66 1
70 66 1
73 66 1
75 66 1
77 66 1
78 66 1
4 67 1
6 67 1
8 67 1
9 67 1
10 67 1
13 67 1
14 67 1
16 67 1
17 67 1
18 67 1
22 67 1
23 67 1
25 67 1
26 67 1
27 67 1
28 67 1
30 67 1
31 67 1
33 67 1
34 67 1
39 67 1
40 67 1
41 67 1
44 67 1
46 67 1
47 67 1
49 67 1
50 67 1
53 67 1
56 67 1
59 67 1
64 67 1
67 67 1
69 67 1
73 67 1
77 67 1
79 67 1
1 68 1
3 68 1
5 68 1
9 68 1
10 68 1
11 68 1
12 68 1
13 68 1
15 68 1
16 68 1
19 68 1
20 68 1
25 68 1
29 68 1
30 68 1
32 68 1
33 68 1
34 68 1
35 68 1
37 68 1
38 68 1
39 68 1
40 68 1
41 68 1
43 68 1
44 68 1
45 68 1
46 68 1
49 68 1
51 68 1
53 68 1
54 68 1
59 68 1
60 68 1
61 68 1
62 68 1
63 68 1
64 68 1
65 68 1
68 68 1
75 68 1
76 68 1
78 68 1
79 68 1
80 68 1
1 69 1
2 69 1
3 69 1
7 69 1
9 69 1
10 69 1
11 69 1
12 69 1
13 69 1
15 69 1
17 69 1
20 69 1
23 69 1
24 69 1
27 69 1
28 69 1
29 69 1
31 69 1
34 69 1
35 69 1
36 69 1
37 69 1
38 69 1
42 69 1
45 69 1
46 69 1
49 69 1
55 69 1
57 69 1
58 69 1
59 69 1
60 69 1
61 69 1
62 69 1
67 69 1
68 69 1
69 69 1
70 69 1
71 69 1
76 69 1
79 69 1
80 69 1
1 70 1
2 70 1
6 70 1
7 70 1
9 70 1
10 70 1
11 70 1
15 70 1
17 70 1
18 70 1
20 70 1
22 70 1
23 70 1
24 70 1
25 70 1
26 70 1
33 70 1
39 70 1
42 70 1
45 70 1
46 70 1
47 70 1
49 70 1
52 70 1
54 70 1
56 70 1
57 70 1
59 70 1
61 70 1
62 70 1
65 70 1
66 70 1
69 70 1
72 70 1
73 70 1
77 70 1
79 70 1
80 70 1
2 71 1
4 71 1
5 71 1
6 71 1
7 71 1
9 71 1
10 71 1
17 71 1
20 71 1
27 71 1
29 71 1
30 71 1
32 71 1
35 71 1
37 71 1
40 71 1
41 71 1
42 71 1
43 71 1
44 71 1
45 71 1
47 71 1
48 71 1
52 71 1
55 71 1
56 71 1
57 71 1
58 71 1
59 71 1
60 71 1
61 71 1
65 71 1
66 71 1
70 71 1
71 71 1
73 71 1
74 71 1
76 71 1
1 72 1
4 72 1
5 72 1
6 72 1
7 72 1
9 72 1
10 72 1
12 72 1
15 72 1
16 72 1
17 72 1
21 72 1
24 72 1
25 72 1
26 72 1
27 72 1
28 72 1
31 72 1
34 72 1
35 72 1
36 72 1
40 72 1
43 72 1
45 72 1
47 72 1
48 72 1
52 72 1
53 72 1
54 72 1
55 72 1
56 72 1
57 72 1
61 72 1
63 72 1
66 72 1
70 72 1
71 72 1
72 72 1
76 72 1
78 72 1
79 72 1
3 73 1
5 73 1
6 73 1
7 73 1
9 73 1
11 73 1
13 73 1
14 73 1
18 73 1
19 73 1
20 73 1
22 73 1
23 73 1
25 73 1
28 73 1
30 73 1
31 73 1
32 73 1
33 73 1
38 73 1
39 73 1
40 73 1
41 73 1
43 73 1
44 73 1
45 73 1
46 73 1
48 73 1
49 73 1
50 73 1
51 73 1
55 73 1
56 73 1
57 73 1
58 73 1
60 73 1
63 73 1
66 73 1
67 73 1
68 73 1
72 73 1
74 73 1
75 73 1
76 73 1
77 73 1
79 73 1
1 74 1
2 74 1
3 74 1
4 74 1
6 74 1
7 74 1
10 74 1
12 74 1
14 74 1
15 74 1
16 74 1
17 74 1
21 74 1
24 74 1
29 74 1
30 74 1
31 74 1
32 74 1
33 74 1
34 74 1
35 74 1
36 74 1
37 74 1
38 74 1
41 74 1
44 74 1
46 74 1
47 74 1
50 74 1
52 74 1
53 74 1
56 74 1
57 74 1
59 74 1
60 74 1
63 74 1
64 74 1
66 74 1
67 74 1
69 74 1
70 74 1
73 74 1
74 74 1
77 74 1
78 74 1
6 75 1
7 75 1
8 75 1
9 75 1
11 75 1
13 75 1
15 75 1
17 75 1
19 75 1
21 75 1
23 75 1
24 75 1
26 75 1
28 75 1
29 75 1
34 75 1
36 75 1
38 75 1
40 75 1
44 75 1
46 75 1
47 75 1
48 75 1
49 75 1
56 75 1
57 75 1
60 75 1
61 75 1
63 75 1
64 75 1
65 75 1
67 75 1
68 75 1
70 75 1
73 75 1
74 75 1
75 75 1
79 75 1
1 76 1
2 76 1
3 76 1
5 76 1
6 76 1
19 76 1
21 76 1
22 76 1
26 76 1
27 76 1
33 76 1
38 76 1
39 76 1
40 76 1
41 76 1
45 76 1
46 76 1
51 76 1
53 76 1
54 76 1
55 76 1
56 76 1
60 76 1
62 76 1
63 76 1
67 76 1
68 76 1
69 76 1
70 76 1
71 76 1
73 76 1
75 76 1
76 76 1
79 76 1
2 77 1
4 77 1
7 77 1
8 77 1
11 77 1
12 77 1
14 77 1
16 77 1
19 77 1
20 77 1
21 77 1
25 77 1
26 77 1
27 77 1
28 77 1
29 77 1
30 77 1
31 77 1
35 77 1
37 77 1
38 77 1
41 77 1
42 77 1
46 77 1
49 77 1
52 77 1
54 77 1
55 77 1
58 77 1
59 77 1
62 77 1
64 77 1
65 77 1
66 77 1
67 77 1
69 77 1
70 77 1
72 77 1
74 77 1
75 77 1
80 77 1
1 78 1
4 78 1
5 78 1
6 78 1
8 78 1
12 78 1
13 78 1
15 78 1
16 78 1
20 78 1
23 78 1
25 78 1
28 78 1
32 78 1
33 78 1
34 78 1
35 78 1
39 78 1
45 78 1
47 78 1
49 78 1
51 78 1
52 78 1
54 78 1
57 78 1
58 78 1
61 78 1
64 78 1
65 78 1
71 78 1
74 78 1
77 78 1
78 78 1
80 78 1
3 79 1
5 79 1
8 79 1
10 79 1
12 79 1
13 79 1
15 79 1
18 79 1
21 79 1
23 79 1
24 79 1
27 79 1
29 79 1
30 79 1
31 79 1
32 79 1
33 79 1
35 79 1
36 79 1
37 79 1
38 79 1
39 79 1
40 79 1
41 79 1
43 79 1
44 79 1
47 79 1
48 79 1
50 79 1
55 79 1
56 79 1
58 79 1
59 79 1
60 79 1
62 79 1
63 79 1
71 79 1
72 79 1
74 79 1
77 79 1
78 79 1
80 79 1
2 80 1
3 80 1
4 80 1
8 80 1
9 80 1
14 80 1
15 80 1
18 80 1
19 80 1
20 80 1
21 80 1
23 80 1
24 80 1
25 80 1
26 80 1
29 80 1
31 80 1
34 80 1
36 80 1
37 80 1
38 80 1
40 80 1
42 80 1
46 80 1
49 80 1
50 80 1
51 80 1
55 80 1
61 80 1
62 80 1
64 80 1
66 80 1
67 80 1
70 80 1
72 80 1
73 80 1
75 80 1
77 80 1
80 80 1
1 81 1
4 81 1
5 81 1
7 81 1
8 81 1
9 81 1
10 81 1
11 81 1
14 81 1
15 81 1
17 81 1
23 81 1
24 81 1
25 81 1
26 81 1
28 81 1
29 81 1
30 81 1
31 81 1
38 81 1
40 81 1
42 81 1
43 81 1
44 81 1
46 81 1
48 81 1
50 81 1
51 81 1
54 81 1
56 81 1
60 81 1
62 81 1
63 81 1
64 81 1
65 81 1
67 81 1
68 81 1
69 81 1
72 81 1
73 81 1
77 81 1
2 82 1
4 82 1
5 82 1
6 82 1
10 82 1
12 82 1
14 82 1
16 82 1
17 82 1
18 82 1
23 82 1
25 82 1
27 82 1
29 82 1
33 82 1
34 82 1
40 82 1
45 82 1
46 82 1
47 82 1
48 82 1
49 82 1
51 82 1
53 82 1
56 82 1
58 82 1
59 82 1
62 82 1
64 82 1
66 82 1
70 82 1
71 82 1
72 82 1
74 82 1
1 83 1
2 83 1
3 83 1
5 83 1
7 83 1
8 83 1
10 83 1
13 83 1
15 83 1
17 83 1
18 83 1
20 83 1
24 83 1
38 83 1
43 83 1
47 83 1
51 83 1
52 83 1
53 83 1
55 83 1
56 83 1
60 83 1
61 83 1
64 83 1
65 83 1
66 83 1
67 83 1
68 83 1
69 83 1
73 83 1
77 83 1
79 83 1
3 84 1
4 84 1
6 84 1
8 84 1
10 84 1
11 84 1
12 84 1
14 84 1
15 84 1
16 84 1
18 84 1
19 84 1
20 84 1
23 84 1
24 84 1
25 84 1
26 84 1
28 84 1
29 84 1
30 84 1
38 84 1
42 84 1
44 84 1
46 84 1
48 84 1
50 84 1
53 84 1
55 84 1
56 84 1
57 84 1
59 84 1
63 84 1
66 84 1
67 84 1
70 84 1
71 84 1
72 84 1
73 84 1
77 84 1
2 85 1
4 85 1
8 85 1
10 85 1
12 85 1
13 85 1
16 85 1
17 85 1
19 85 1
20 85 1
22 85 1
25 85 1
29 85 1
31 85 1
33 85 1
34 85 1
40 85 1
45 85 1
46 85 1
47 85 1
48 85 1
49 85 1
50 85 1
51 85 1
55 85 1
57 85 1
60 85 1
61 85 1
63 85 1
64 85 1
65 85 1
69 85 1
70 85 1
73 85 1
74 85 1
77 85 1
79 85 1
2 86 1
3 86 1
5 86 1
8 86 1
10 86 1
11 86 1
13 86 1
14 86 1
15 86 1
18 86 1
19 86 1
21 86 1
22 86 1
24 86 1
25 86 1
27 86 1
28 86 1
31 86 1
38 86 1
42 86 1
43 86 1
47 86 1
48 86 1
49 86 1
51 86 1
52 86 1
53 86 1
54 86 1
57 86 1
59 86 1
60 86 1
62 86 1
63 86 1
66 86 1
68 86 1
69 86 1
70 86 1
71 86 1
72 86 1
3 87 1
4 87 1
8 87 1
12 87 1
14 87 1
16 87 1
20 87 1
21 87 1
22 87 1
23 87 1
24 87 1
27 87 1
28 87 1
29 87 1
30 87 1
33 87 1
46 87 1
48 87 1
50 87 1
52 87 1
53 87 1
54 87 1
55 87 1
58 87 1
59 87 1
61 87 1
64 87 1
68 87 1
73 87 1
74 87 1
77 87 1
1 88 1
2 88 1
4 88 1
8 88 1
9 88 1
12 88 1
13 88 1
14 88 1
15 88 1
17 88 1
19 88 1
21 88 1
24 88 1
26 88 1
31 88 1
33 88 1
34 88 1
38 88 1
40 88 1
42 88 1
43 88 1
46 88 1
47 88 1
49 88 1
50 88 1
54 88 1
55 88 1
56 88 1
57 88 1
58 88 1
60 88 1
61 88 1
62 88 1
63 88 1
65 88 1
66 88 1
67 88 1
68 88 1
70 88 1
72 88 1
74 88 1
77 88 1
2 89 1
3 89 1
5 89 1
9 89 1
12 89 1
14 89 1
15 89 1
16 89 1
18 89 1
22 89 1
25 89 1
26 89 1
27 89 1
28 89 1
30 89 1
31 89 1
44 89 1
46 89 1
47 89 1
49 89 1
51 89 1
52 89 1
57 89 1
58 89 1
59 89 1
65 89 1
70 89 1
71 89 1
72 89 1
79 89 1
1 90 1
3 90 1
4 90 1
7 90 1
9 90 1
10 90 1
13 90 1
14 90 1
15 90 1
16 90 1
17 90 1
20 90 1
21 90 1
27 90 1
28 90 1
29 90 1
30 90 1
33 90 1
34 90 1
38 90 1
43 90 1
44 90 1
45 90 1
46 90 1
47 90 1
50 90 1
52 90 1
53 90 1
54 90 1
60 90 1
61 90 1
62 90 1
63 90 1
64 90 1
65 90 1
67 90 1
68 90 1
69 90 1
71 90 1
73 90 1
74 90 1
77 90 1
1 91 1
2 91 1
6 91 1
7 91 1
13 91 1
14 91 1
15 91 1
16 91 1
18 91 1
19 91 1
23 91 1
24 91 1
26 91 1
28 91 1
31 91 1
33 91 1
34 91 1
38 91 1
42 91 1
44 91 1
45 91 1
47 91 1
48 91 1
49 91 1
50 91 1
54 91 1
55 91 1
56 91 1
58 91 1
59 91 1
62 91 1
66 91 1
70 91 1
71 91 1
73 91 1
74 91 1
77 91 1
1 92 1
3 92 1
5 92 1
6 92 1
7 92 1
8 92 1
9 92 1
10 92 1
12 92 1
13 92 1
15 92 1
16 92 1
20 92 1
22 92 1
23 92 1
25 92 1
26 92 1
27 92 1
30 92 1
31 92 1
33 92 1
42 92 1
45 92 1
49 92 1
50 92 1
51 92 1
52 92 1
56 92 1
57 92 1
58 92 1
60 92 1
61 92 1
64 92 1
65 92 1
67 92 1
68 92 1
69 92 1
70 92 1
79 92 1
4 93 1
6 93 1
10 93 1
11 93 1
13 93 1
15 93 1
16 93 1
19 93 1
21 93 1
27 93 1
30 93 1
34 93 1
40 93 1
42 93 1
43 93 1
44 93 1
49 93 1
50 93 1
52 93 1
53 93 1
59 93 1
60 93 1
62 93 1
63 93 1
66 93 1
67 93 1
71 93 1
72 93 1
73 93 1
79 93 1
1 94 1
2 94 1
5 94 1
7 94 1
8 94 1
11 94 1
13 94 1
16 94 1
22 94 1
23 94 1
24 94 1
26 94 1
28 94 1
29 94 1
30 94 1
31 94 1
34 94 1
40 94 1
43 94 1
44 94 1
45 94 1
46 94 1
48 94 1
49 94 1
52 94 1
54 94 1
55 94 1
56 94 1
59 94 1
61 94 1
64 94 1
65 94 1
69 94 1
73 94 1
79 94 1
3 95 1
5 95 1
6 95 1
8 95 1
9 95 1
10 95 1
11 95 1
12 95 1
13 95 1
14 95 1
21 95 1
23 95 1
25 95 1
26 95 1
27 95 1
29 95 1
33 95 1
34 95 1
38 95 1
40 95 1
42 95 1
43 95 1
45 95 1
47 95 1
48 95 1
52 95 1
56 95 1
57 95 1
58 95 1
61 95 1
62 95 1
63 95 1
66 95 1
67 95 1
68 95 1
69 95 1
71 95 1
72 95 1
1 128 1
4 129 1
2 130 1
3 131 1
5 132 1
31 133 1
27 134 1
25 135 1
26 136 1
24 137 1
12 138 1
23 139 1
28 140 1
33 141 1
29 142 1
30 143 1
34 144 1
32 145 1
36 146 1
35 147 1
39 150 1
37 151 1
41 152 1
10 161 1
9 162 1
8 163 1
7 164 1
6 165 1
14 166 1
11 167 1
15 168 1
16 169 1
13 170 1
17 171 1
18 172 1
20 173 1
19 174 1
22 175 1
21 176 1
42 177 1
38 178 1
43 179 1
60 180 1
59 181 1
61 182 1
64 183 1
66 184 1
62 185 1
63 186 1
67 187 1
68 188 1
69 189 1
65 190 1
71 191 1
72 192 1
74 195 1
79 212 1
48 241 1
44 242 1
45 243 1
46 244 1
47 245 1
40 246 1
50 247 1
49 248 1
52 249 1
51 250 1
53 251 1
55 252 1
57 253 1
56 254 1
54 255 1
58 256 1
77 257 1
70 258 1
73 273 1
1 306 1
4 306 1
5 306 1
28 306 1
31 306 1
33 306 1
34 306 1
36 306 1
37 306 1
42 306 1
43 306 1
59 306 1
61 306 1
64 306 1
67 306 1
70 306 1
71 306 1
72 306 1
2 307 1
5 307 1
27 307 1
28 307 1
29 307 1
32 307 1
34 307 1
35 307 1
36 307 1
37 307 1
38 307 1
41 307 1
43 307 1
59 307 1
60 307 1
66 307 1
67 307 1
68 307 1
70 307 1
71 307 1
77 307 1
3 308 1
5 308 1
25 308 1
28 308 1
30 308 1
32 308 1
34 308 1
35 308 1
37 308 1
39 308 1
41 308 1
42 308 1
60 308 1
62 308 1
64 308 1
67 308 1
68 308 1
69 308 1
71 308 1
74 308 1
1 309 1
26 309 1
28 309 1
38 309 1
39 309 1
41 309 1
42 309 1
43 309 1
61 309 1
63 309 1
64 309 1
65 309 1
66 309 1
67 309 1
68 309 1
69 309 1
70 309 1
71 309 1
73 309 1
74 309 1
79 309 1
4 310 1
5 310 1
24 310 1
28 310 1
31 310 1
34 310 1
36 310 1
38 310 1
42 310 1
59 310 1
60 310 1
61 310 1
62 310 1
65 310 1
66 310 1
68 310 1
69 310 1
70 310 1
73 310 1
74 310 1
77 310 1
1 311 1
2 311 1
5 311 1
12 311 1
27 311 1
28 311 1
34 311 1
35 311 1
36 311 1
37 311 1
38 311 1
42 311 1
62 311 1
63 311 1
65 311 1
67 311 1
69 311 1
72 311 1
73 311 1
77 311 1
1 312 1
3 312 1
5 312 1
23 312 1
25 312 1
28 312 1
32 312 1
34 312 1
35 312 1
36 312 1
37 312 1
38 312 1
39 312 1
41 312 1
59 312 1
61 312 1
63 312 1
64 312 1
65 312 1
68 312 1
72 312 1
73 312 1
77 312 1
79 312 1
26 313 1
34 313 1
35 313 1
39 313 1
41 313 1
59 313 1
66 313 1
69 313 1
72 313 1
74 313 1
77 313 1
5 314 1
24 314 1
28 314 1
31 314 1
32 314 1
33 314 1
34 314 1
36 314 1
43 314 1
59 314 1
62 314 1
64 314 1
65 314 1
67 314 1
71 314 1
72 314 1
77 314 1
79 314 1
5 315 1
12 315 1
27 315 1
28 315 1
29 315 1
32 315 1
34 315 1
35 315 1
37 315 1
43 315 1
59 315 1
60 315 1
63 315 1
64 315 1
66 315 1
67 315 1
68 315 1
79 315 1
5 316 1
23 316 1
25 316 1
28 316 1
30 316 1
34 316 1
37 316 1
41 316 1
42 316 1
43 316 1
60 316 1
62 316 1
64 316 1
66 316 1
68 316 1
69 316 1
70 316 1
71 316 1
72 316 1
73 316 1
74 316 1
5 317 1
26 317 1
36 317 1
37 317 1
38 317 1
39 317 1
41 317 1
43 317 1
60 317 1
61 317 1
62 317 1
63 317 1
64 317 1
65 317 1
66 317 1
67 317 1
69 317 1
70 317 1
71 317 1
74 317 1
1 318 1
4 318 1
5 318 1
24 318 1
28 318 1
33 318 1
34 318 1
35 318 1
36 318 1
41 318 1
42 318 1
60 318 1
61 318 1
62 318 1
63 318 1
65 318 1
66 318 1
68 318 1
70 318 1
73 318 1
74 318 1
1 319 1
2 319 1
5 319 1
12 319 1
28 319 1
29 319 1
32 319 1
34 319 1
35 319 1
36 319 1
37 319 1
38 319 1
39 319 1
42 319 1
43 319 1
61 319 1
62 319 1
63 319 1
69 319 1
70 319 1
72 319 1
79 319 1
1 320 1
3 320 1
5 320 1
23 320 1
28 320 1
30 320 1
32 320 1
34 320 1
35 320 1
38 320 1
39 320 1
41 320 1
59 320 1
60 320 1
61 320 1
63 320 1
65 320 1
70 320 1
71 320 1
72 320 1
73 320 1
74 320 1
77 320 1
79 320 1
75 321 1
78 322 1
76 323 1
80 325 1
45 367 1
47 367 1
48 367 1
50 367 1
52 367 1
53 367 1
54 367 1
57 367 1
70 367 1
77 367 1
78 367 1
40 368 1
44 368 1
46 368 1
49 368 1
51 368 1
55 368 1
56 368 1
58 368 1
70 368 1
73 368 1
75 368 1
76 368 1
77 368 1
80 368 1
11 372 1
14 372 1
15 372 1
17 372 1
18 372 1
20 372 1
21 372 1
22 372 1
42 372 1
44 372 1
45 372 1
46 372 1
47 372 1
48 372 1
49 372 1
50 372 1
51 372 1
52 372 1
53 372 1
54 372 1
55 372 1
59 372 1
60 372 1
68 372 1
70 372 1
75 372 1
76 372 1
78 372 1
79 372 1
10 373 1
14 373 1
16 373 1
17 373 1
19 373 1
22 373 1
38 373 1
40 373 1
42 373 1
48 373 1
50 373 1
54 373 1
57 373 1
58 373 1
60 373 1
61 373 1
68 373 1
69 373 1
70 373 1
74 373 1
79 373 1
9 374 1
11 374 1
13 374 1
18 374 1
21 374 1
22 374 1
38 374 1
43 374 1
44 374 1
45 374 1
47 374 1
49 374 1
52 374 1
53 374 1
54 374 1
56 374 1
57 374 1
58 374 1
59 374 1
64 374 1
65 374 1
69 374 1
70 374 1
73 374 1
74 374 1
75 374 1
77 374 1
78 374 1
79 374 1
80 374 1
8 375 1
10 375 1
15 375 1
17 375 1
20 375 1
21 375 1
40 375 1
43 375 1
45 375 1
46 375 1
48 375 1
51 375 1
52 375 1
54 375 1
55 375 1
56 375 1
58 375 1
60 375 1
61 375 1
65 375 1
66 375 1
70 375 1
71 375 1
74 375 1
75 375 1
76 375 1
78 375 1
80 375 1
7 376 1
9 376 1
10 376 1
11 376 1
14 376 1
15 376 1
16 376 1
17 376 1
19 376 1
20 376 1
21 376 1
22 376 1
42 376 1
45 376 1
49 376 1
52 376 1
55 376 1
57 376 1
58 376 1
62 376 1
64 376 1
68 376 1
70 376 1
71 376 1
72 376 1
73 376 1
74 376 1
77 376 1
6 377 1
8 377 1
9 377 1
10 377 1
13 377 1
14 377 1
16 377 1
17 377 1
19 377 1
20 377 1
38 377 1
44 377 1
48 377 1
49 377 1
52 377 1
55 377 1
56 377 1
59 377 1
60 377 1
63 377 1
66 377 1
68 377 1
69 377 1
70 377 1
72 377 1
73 377 1
74 377 1
76 377 1
77 377 1
80 377 1
7 378 1
8 378 1
9 378 1
11 378 1
13 378 1
14 378 1
17 378 1
18 378 1
19 378 1
22 378 1
42 378 1
43 378 1
44 378 1
47 378 1
48 378 1
50 378 1
51 378 1
53 378 1
59 378 1
61 378 1
62 378 1
65 378 1
67 378 1
69 378 1
74 378 1
75 378 1
78 378 1
80 378 1
6 379 1
7 379 1
8 379 1
11 379 1
15 379 1
17 379 1
18 379 1
20 379 1
21 379 1
22 379 1
38 379 1
40 379 1
44 379 1
47 379 1
48 379 1
49 379 1
50 379 1
52 379 1
54 379 1
55 379 1
57 379 1
60 379 1
61 379 1
63 379 1
64 379 1
65 379 1
68 379 1
70 379 1
71 379 1
73 379 1
76 379 1
79 379 1
6 380 1
7 380 1
10 380 1
11 380 1
16 380 1
17 380 1
19 380 1
22 380 1
40 380 1
42 380 1
43 380 1
45 380 1
46 380 1
50 380 1
52 380 1
55 380 1
56 380 1
58 380 1
60 380 1
64 380 1
66 380 1
67 380 1
68 380 1
69 380 1
71 380 1
72 380 1
73 380 1
74 380 1
75 380 1
76 380 1
77 380 1
80 380 1
6 381 1
9 381 1
11 381 1
13 381 1
17 381 1
20 381 1
38 381 1
44 381 1
47 381 1
48 381 1
50 381 1
54 381 1
55 381 1
62 381 1
65 381 1
66 381 1
69 381 1
70 381 1
72 381 1
73 381 1
76 381 1
78 381 1
79 381 1
8 382 1
14 382 1
15 382 1
17 382 1
18 382 1
19 382 1
40 382 1
42 382 1
43 382 1
44 382 1
47 382 1
48 382 1
49 382 1
50 382 1
52 382 1
53 382 1
54 382 1
58 382 1
62 382 1
63 382 1
65 382 1
70 382 1
71 382 1
74 382 1
76 382 1
78 382 1
7 383 1
11 383 1
16 383 1
18 383 1
20 383 1
22 383 1
38 383 1
40 383 1
44 383 1
45 383 1
48 383 1
49 383 1
50 383 1
51 383 1
52 383 1
55 383 1
58 383 1
60 383 1
63 383 1
67 383 1
71 383 1
72 383 1
73 383 1
74 383 1
75 383 1
76 383 1
77 383 1
79 383 1
6 384 1
11 384 1
13 384 1
14 384 1
17 384 1
18 384 1
19 384 1
22 384 1
43 384 1
45 384 1
48 384 1
50 384 1
52 384 1
53 384 1
55 384 1
60 384 1
67 384 1
70 384 1
72 384 1
73 384 1
76 384 1
78 384 1
80 384 1
2 386 1
3 386 1
7 386 1
8 386 1
10 386 1
11 386 1
12 386 1
16 386 1
19 386 1
20 386 1
22 386 1
24 386 1
26 386 1
27 386 1
30 386 1
31 386 1
33 386 1
34 386 1
35 386 1
36 386 1
37 386 1
38 386 1
41 386 1
47 386 1
49 386 1
50 386 1
52 386 1
53 386 1
57 386 1
59 386 1
61 386 1
62 386 1
63 386 1
66 386 1
67 386 1
68 386 1
71 386 1
72 386 1
73 386 1
75 386 1
77 386 1
78 386 1
2 387 1
4 387 1
5 387 1
6 387 1
8 387 1
9 387 1
10 387 1
13 387 1
14 387 1
16 387 1
17 387 1
18 387 1
22 387 1
23 387 1
25 387 1
26 387 1
29 387 1
30 387 1
31 387 1
32 387 1
33 387 1
36 387 1
37 387 1
38 387 1
39 387 1
40 387 1
43 387 1
44 387 1
46 387 1
47 387 1
49 387 1
50 387 1
53 387 1
56 387 1
60 387 1
64 387 1
66 387 1
68 387 1
69 387 1
70 387 1
71 387 1
73 387 1
79 387 1
1 388 1
9 388 1
10 388 1
11 388 1
12 388 1
13 388 1
15 388 1
16 388 1
19 388 1
20 388 1
28 388 1
29 388 1
33 388 1
38 388 1
40 388 1
42 388 1
43 388 1
44 388 1
45 388 1
46 388 1
49 388 1
51 388 1
53 388 1
54 388 1
59 388 1
61 388 1
63 388 1
65 388 1
67 388 1
69 388 1
71 388 1
74 388 1
75 388 1
76 388 1
78 388 1
79 388 1
80 388 1
2 389 1
3 389 1
7 389 1
9 389 1
10 389 1
11 389 1
12 389 1
13 389 1
15 389 1
17 389 1
20 389 1
23 389 1
24 389 1
26 389 1
27 389 1
29 389 1
31 389 1
34 389 1
35 389 1
36 389 1
37 389 1
39 389 1
41 389 1
43 389 1
45 389 1
46 389 1
49 389 1
55 389 1
57 389 1
58 389 1
59 389 1
60 389 1
62 389 1
63 389 1
64 389 1
65 389 1
66 389 1
73 389 1
74 389 1
76 389 1
80 389 1
1 390 1
2 390 1
4 390 1
5 390 1
6 390 1
7 390 1
9 390 1
10 390 1
11 390 1
15 390 1
17 390 1
18 390 1
20 390 1
22 390 1
23 390 1
25 390 1
26 390 1
28 390 1
31 390 1
33 390 1
34 390 1
36 390 1
38 390 1
45 390 1
46 390 1
47 390 1
49 390 1
52 390 1
54 390 1
56 390 1
57 390 1
60 390 1
68 390 1
70 390 1
72 390 1
74 390 1
79 390 1
80 390 1
1 391 1
4 391 1
6 391 1
7 391 1
9 391 1
10 391 1
12 391 1
17 391 1
20 391 1
28 391 1
29 391 1
30 391 1
32 391 1
34 391 1
36 391 1
37 391 1
38 391 1
40 391 1
41 391 1
43 391 1
44 391 1
45 391 1
47 391 1
48 391 1
52 391 1
55 391 1
56 391 1
57 391 1
58 391 1
59 391 1
60 391 1
61 391 1
62 391 1
63 391 1
66 391 1
67 391 1
69 391 1
70 391 1
71 391 1
72 391 1
74 391 1
76 391 1
77 391 1
3 392 1
4 392 1
6 392 1
7 392 1
9 392 1
10 392 1
12 392 1
15 392 1
16 392 1
17 392 1
21 392 1
23 392 1
24 392 1
26 392 1
27 392 1
31 392 1
32 392 1
37 392 1
38 392 1
39 392 1
40 392 1
43 392 1
45 392 1
47 392 1
48 392 1
52 392 1
53 392 1
54 392 1
55 392 1
56 392 1
57 392 1
59 392 1
64 392 1
65 392 1
66 392 1
68 392 1
70 392 1
71 392 1
73 392 1
76 392 1
77 392 1
78 392 1
3 393 1
5 393 1
6 393 1
7 393 1
9 393 1
11 393 1
13 393 1
14 393 1
18 393 1
19 393 1
20 393 1
22 393 1
23 393 1
25 393 1
26 393 1
28 393 1
30 393 1
31 393 1
32 393 1
33 393 1
34 393 1
35 393 1
38 393 1
40 393 1
43 393 1
44 393 1
45 393 1
46 393 1
48 393 1
49 393 1
50 393 1
51 393 1
55 393 1
56 393 1
57 393 1
58 393 1
59 393 1
60 393 1
63 393 1
67 393 1
68 393 1
69 393 1
75 393 1
76 393 1
79 393 1
1 394 1
2 394 1
3 394 1
4 394 1
5 394 1
6 394 1
7 394 1
10 394 1
12 394 1
14 394 1
15 394 1
16 394 1
17 394 1
21 394 1
28 394 1
29 394 1
30 394 1
35 394 1
37 394 1
38 394 1
41 394 1
43 394 1
44 394 1
46 394 1
47 394 1
50 394 1
52 394 1
53 394 1
56 394 1
57 394 1
60 394 1
62 394 1
63 394 1
65 394 1
66 394 1
69 394 1
70 394 1
71 394 1
72 394 1
73 394 1
74 394 1
78 394 1
79 394 1
5 395 1
6 395 1
7 395 1
8 395 1
9 395 1
11 395 1
12 395 1
13 395 1
15 395 1
17 395 1
19 395 1
21 395 1
23 395 1
24 395 1
26 395 1
27 395 1
32 395 1
35 395 1
36 395 1
37 395 1
38 395 1
40 395 1
43 395 1
44 395 1
46 395 1
47 395 1
48 395 1
49 395 1
56 395 1
57 395 1
59 395 1
61 395 1
65 395 1
66 395 1
70 395 1
73 395 1
74 395 1
75 395 1
1 396 1
2 396 1
3 396 1
6 396 1
19 396 1
21 396 1
22 396 1
23 396 1
25 396 1
26 396 1
27 396 1
28 396 1
30 396 1
33 396 1
34 396 1
37 396 1
38 396 1
39 396 1
40 396 1
42 396 1
43 396 1
45 396 1
46 396 1
51 396 1
53 396 1
54 396 1
55 396 1
56 396 1
63 396 1
64 396 1
66 396 1
67 396 1
72 396 1
74 396 1
75 396 1
76 396 1
79 396 1
2 397 1
4 397 1
5 397 1
7 397 1
8 397 1
11 397 1
12 397 1
14 397 1
16 397 1
19 397 1
20 397 1
21 397 1
25 397 1
27 397 1
28 397 1
29 397 1
30 397 1
31 397 1
35 397 1
36 397 1
39 397 1
42 397 1
43 397 1
46 397 1
49 397 1
52 397 1
54 397 1
55 397 1
58 397 1
59 397 1
60 397 1
61 397 1
63 397 1
71 397 1
72 397 1
75 397 1
80 397 1
6 398 1
8 398 1
12 398 1
13 398 1
15 398 1
16 398 1
20 398 1
23 398 1
24 398 1
25 398 1
32 398 1
36 398 1
39 398 1
41 398 1
42 398 1
45 398 1
47 398 1
49 398 1
51 398 1
52 398 1
54 398 1
57 398 1
58 398 1
60 398 1
62 398 1
63 398 1
64 398 1
66 398 1
68 398 1
70 398 1
71 398 1
73 398 1
77 398 1
78 398 1
80 398 1
1 399 1
2 399 1
3 399 1
8 399 1
10 399 1
13 399 1
15 399 1
18 399 1
21 399 1
23 399 1
24 399 1
27 399 1
28 399 1
30 399 1
31 399 1
33 399 1
34 399 1
40 399 1
41 399 1
42 399 1
44 399 1
47 399 1
48 399 1
50 399 1
55 399 1
56 399 1
58 399 1
59 399 1
60 399 1
61 399 1
69 399 1
70 399 1
71 399 1
74 399 1
77 399 1
78 399 1
79 399 1
80 399 1
1 400 1
2 400 1
4 400 1
5 400 1
8 400 1
9 400 1
14 400 1
15 400 1
18 400 1
19 400 1
20 400 1
21 400 1
24 400 1
25 400 1
26 400 1
28 400 1
29 400 1
30 400 1
31 400 1
32 400 1
35 400 1
36 400 1
37 400 1
39 400 1
40 400 1
41 400 1
42 400 1
46 400 1
49 400 1
50 400 1
51 400 1
55 400 1
59 400 1
60 400 1
62 400 1
63 400 1
64 400 1
65 400 1
66 400 1
67 400 1
71 400 1
74 400 1
75 400 1
79 400 1
80 400 1
2 450 1
3 450 1
4 450 1
6 450 1
7 450 1
8 450 1
9 450 1
11 450 1
13 450 1
14 450 1
18 450 1
21 450 1
22 450 1
23 450 1
24 450 1
25 450 1
26 450 1
28 450 1
29 450 1
33 450 1
45 450 1
48 450 1
50 450 1
53 450 1
55 450 1
57 450 1
59 450 1
60 450 1
62 450 1
64 450 1
66 450 1
70 450 1
71 450 1
73 450 1
74 450 1
75 450 1
76 450 1
77 450 1
78 450 1
79 450 1
1 451 1
4 451 1
5 451 1
9 451 1
10 451 1
12 451 1
13 451 1
15 451 1
17 451 1
18 451 1
20 451 1
22 451 1
23 451 1
25 451 1
30 451 1
44 451 1
45 451 1
46 451 1
48 451 1
49 451 1
50 451 1
53 451 1
56 451 1
60 451 1
61 451 1
63 451 1
64 451 1
71 451 1
72 451 1
73 451 1
77 451 1
79 451 1
80 451 1
1 452 1
3 452 1
4 452 1
6 452 1
7 452 1
13 452 1
15 452 1
16 452 1
18 452 1
19 452 1
21 452 1
24 452 1
25 452 1
29 452 1
31 452 1
33 452 1
34 452 1
45 452 1
51 452 1
55 452 1
57 452 1
59 452 1
62 452 1
67 452 1
68 452 1
70 452 1
71 452 1
72 452 1
73 452 1
79 452 1
1 453 1
3 453 1
5 453 1
7 453 1
8 453 1
9 453 1
10 453 1
12 453 1
14 453 1
15 453 1
16 453 1
22 453 1
23 453 1
24 453 1
25 453 1
27 453 1
28 453 1
30 453 1
33 453 1
44 453 1
47 453 1
49 453 1
51 453 1
52 453 1
53 453 1
54 453 1
56 453 1
61 453 1
62 453 1
63 453 1
64 453 1
66 453 1
69 453 1
71 453 1
72 453 1
73 453 1
74 453 1
77 453 1
80 453 1
1 454 1
2 454 1
3 454 1
4 454 1
5 454 1
12 454 1
14 454 1
16 454 1
18 454 1
22 454 1
24 454 1
31 454 1
34 454 1
40 454 1
42 454 1
48 454 1
50 454 1
51 454 1
52 454 1
54 454 1
57 454 1
58 454 1
59 454 1
60 454 1
63 454 1
65 454 1
67 454 1
71 454 1
72 454 1
75 454 1
76 454 1
77 454 1
78 454 1
79 454 1
80 454 1
1 455 1
5 455 1
6 455 1
7 455 1
8 455 1
9 455 1
12 455 1
14 455 1
18 455 1
20 455 1
22 455 1
24 455 1
25 455 1
26 455 1
27 455 1
28 455 1
29 455 1
31 455 1
33 455 1
38 455 1
42 455 1
44 455 1
47 455 1
48 455 1
49 455 1
50 455 1
51 455 1
52 455 1
53 455 1
54 455 1
55 455 1
56 455 1
58 455 1
60 455 1
61 455 1
62 455 1
64 455 1
66 455 1
67 455 1
68 455 1
70 455 1
72 455 1
75 455 1
78 455 1
79 455 1
80 455 1
1 456 1
2 456 1
3 456 1
4 456 1
9 456 1
11 456 1
12 456 1
13 456 1
14 456 1
15 456 1
17 456 1
19 456 1
21 456 1
27 456 1
28 456 1
30 456 1
31 456 1
38 456 1
40 456 1
43 456 1
45 456 1
46 456 1
47 456 1
48 456 1
53 456 1
55 456 1
58 456 1
59 456 1
63 456 1
69 456 1
71 456 1
73 456 1
75 456 1
76 456 1
77 456 1
78 456 1
80 456 1
4 457 1
5 457 1
6 457 1
7 457 1
9 457 1
10 457 1
11 457 1
13 457 1
16 457 1
18 457 1
20 457 1
22 457 1
24 457 1
26 457 1
27 457 1
28 457 1
29 457 1
34 457 1
40 457 1
42 457 1
43 457 1
45 457 1
47 457 1
49 457 1
51 457 1
53 457 1
55 457 1
57 457 1
60 457 1
61 457 1
62 457 1
64 457 1
65 457 1
66 457 1
67 457 1
68 457 1
71 457 1
72 457 1
73 457 1
74 457 1
76 457 1
79 457 1
80 457 1
3 458 1
7 458 1
11 458 1
12 458 1
15 458 1
17 458 1
18 458 1
19 458 1
20 458 1
22 458 1
23 458 1
26 458 1
28 458 1
29 458 1
30 458 1
31 458 1
38 458 1
40 458 1
42 458 1
46 458 1
47 458 1
50 458 1
53 458 1
54 458 1
56 458 1
57 458 1
63 458 1
68 458 1
69 458 1
72 458 1
76 458 1
79 458 1
80 458 1
2 459 1
3 459 1
4 459 1
5 459 1
7 459 1
8 459 1
9 459 1
11 459 1
13 459 1
14 459 1
15 459 1
16 459 1
19 459 1
20 459 1
25 459 1
26 459 1
27 459 1
29 459 1
30 459 1
34 459 1
38 459 1
40 459 1
42 459 1
43 459 1
49 459 1
50 459 1
52 459 1
56 459 1
58 459 1
59 459 1
60 459 1
62 459 1
64 459 1
65 459 1
66 459 1
67 459 1
69 459 1
71 459 1
74 459 1
76 459 1
77 459 1
79 459 1
80 459 1
5 460 1
9 460 1
11 460 1
16 460 1
19 460 1
20 460 1
22 460 1
23 460 1
28 460 1
29 460 1
30 460 1
31 460 1
33 460 1
34 460 1
38 460 1
42 460 1
43 460 1
44 460 1
46 460 1
47 460 1
48 460 1
50 460 1
57 460 1
59 460 1
60 460 1
61 460 1
63 460 1
64 460 1
65 460 1
70 460 1
72 460 1
74 460 1
75 460 1
77 460 1
79 460 1
80 460 1
2 461 1
3 461 1
6 461 1
7 461 1
9 461 1
17 461 1
19 461 1
20 461 1
21 461 1
22 461 1
23 461 1
24 461 1
25 461 1
26 461 1
27 461 1
30 461 1
31 461 1
34 461 1
38 461 1
40 461 1
43 461 1
46 461 1
47 461 1
48 461 1
50 461 1
51 461 1
53 461 1
56 461 1
59 461 1
60 461 1
61 461 1
62 461 1
67 461 1
68 461 1
74 461 1
75 461 1
1 462 1
2 462 1
5 462 1
7 462 1
9 462 1
10 462 1
11 462 1
12 462 1
13 462 1
19 462 1
23 462 1
27 462 1
29 462 1
33 462 1
34 462 1
40 462 1
43 462 1
44 462 1
49 462 1
50 462 1
52 462 1
53 462 1
61 462 1
62 462 1
63 462 1
66 462 1
68 462 1
69 462 1
71 462 1
73 462 1
76 462 1
78 462 1
79 462 1
1 463 1
2 463 1
7 463 1
11 463 1
13 463 1
14 463 1
15 463 1
17 463 1
18 463 1
21 463 1
24 463 1
26 463 1
30 463 1
31 463 1
33 463 1
45 463 1
47 463 1
49 463 1
50 463 1
51 463 1
54 463 1
59 463 1
63 463 1
65 463 1
66 463 1
67 463 1
69 463 1
71 463 1
72 463 1
73 463 1
75 463 1
2 464 1
4 464 1
7 464 1
8 464 1
9 464 1
10 464 1
11 464 1
12 464 1
13 464 1
16 464 1
18 464 1
23 464 1
25 464 1
26 464 1
27 464 1
28 464 1
33 464 1
34 464 1
40 464 1
44 464 1
45 464 1
48 464 1
50 464 1
51 464 1
52 464 1
58 464 1
61 464 1
64 464 1
65 464 1
66 464 1
67 464 1
70 464 1
72 464 1
74 464 1
75 464 1
77 464 1
80 464 1
1 466 1
2 466 1
3 466 1
5 466 1
8 466 1
10 466 1
12 466 1
14 466 1
15 466 1
16 466 1
18 466 1
19 466 1
22 466 1
27 466 1
28 466 1
30 466 1
31 466 1
33 466 1
34 466 1
40 466 1
44 466 1
45 466 1
46 466 1
53 466 1
54 466 1
55 466 1
56 466 1
57 466 1
58 466 1
59 466 1
60 466 1
63 466 1
65 466 1
66 466 1
69 466 1
76 466 1
77 466 1
79 466 1
2 467 1
4 467 1
7 467 1
8 467 1
9 467 1
10 467 1
12 467 1
13 467 1
17 467 1
19 467 1
22 467 1
23 467 1
25 467 1
28 467 1
29 467 1
30 467 1
40 467 1
42 467 1
46 467 1
47 467 1
48 467 1
49 467 1
50 467 1
51 467 1
53 467 1
55 467 1
57 467 1
59 467 1
61 467 1
62 467 1
63 467 1
66 467 1
67 467 1
68 467 1
69 467 1
70 467 1
71 467 1
73 467 1
74 467 1
75 467 1
77 467 1
79 467 1
1 468 1
5 468 1
6 468 1
7 468 1
9 468 1
10 468 1
11 468 1
12 468 1
16 468 1
18 468 1
19 468 1
20 468 1
22 468 1
23 468 1
26 468 1
27 468 1
31 468 1
38 468 1
42 468 1
44 468 1
48 468 1
51 468 1
53 468 1
55 468 1
58 468 1
61 468 1
62 468 1
64 468 1
66 468 1
67 468 1
72 468 1
73 468 1
75 468 1
77 468 1
1 469 1
2 469 1
3 469 1
5 469 1
6 469 1
9 469 1
10 469 1
12 469 1
13 469 1
16 469 1
18 469 1
20 469 1
21 469 1
23 469 1
24 469 1
25 469 1
30 469 1
33 469 1
34 469 1
38 469 1
40 469 1
42 469 1
43 469 1
46 469 1
48 469 1
54 469 1
56 469 1
58 469 1
59 469 1
60 469 1
62 469 1
64 469 1
65 469 1
68 469 1
69 469 1
70 469 1
73 469 1
74 469 1
76 469 1
77 469 1
78 469 1
79 469 1
1 470 1
2 470 1
4 470 1
9 470 1
13 470 1
15 470 1
16 470 1
17 470 1
18 470 1
20 470 1
22 470 1
23 470 1
26 470 1
27 470 1
29 470 1
30 470 1
33 470 1
38 470 1
40 470 1
43 470 1
45 470 1
46 470 1
47 470 1
48 470 1
50 470 1
53 470 1
55 470 1
56 470 1
57 470 1
61 470 1
70 470 1
71 470 1
73 470 1
74 470 1
75 470 1
79 470 1
1 471 1
5 471 1
10 471 1
11 471 1
12 471 1
13 471 1
18 471 1
24 471 1
25 471 1
27 471 1
29 471 1
31 471 1
33 471 1
42 471 1
43 471 1
44 471 1
45 471 1
46 471 1
47 471 1
50 471 1
51 471 1
53 471 1
55 471 1
57 471 1
58 471 1
60 471 1
63 471 1
64 471 1
65 471 1
66 471 1
68 471 1
69 471 1
72 471 1
74 471 1
78 471 1
80 471 1
2 472 1
3 472 1
5 472 1
8 472 1
9 472 1
10 472 1
11 472 1
15 472 1
16 472 1
19 472 1
21 472 1
23 472 1
25 472 1
26 472 1
28 472 1
29 472 1
33 472 1
34 472 1
38 472 1
46 472 1
47 472 1
48 472 1
51 472 1
54 472 1
55 472 1
57 472 1
58 472 1
59 472 1
60 472 1
62 472 1
63 472 1
67 472 1
68 472 1
71 472 1
74 472 1
75 472 1
76 472 1
77 472 1
80 472 1
1 473 1
2 473 1
4 473 1
7 473 1
9 473 1
12 473 1
13 473 1
14 473 1
18 473 1
19 473 1
24 473 1
26 473 1
27 473 1
29 473 1
34 473 1
43 473 1
45 473 1
46 473 1
47 473 1
48 473 1
54 473 1
55 473 1
60 473 1
61 473 1
65 473 1
66 473 1
67 473 1
68 473 1
70 473 1
72 473 1
74 473 1
76 473 1
77 473 1
78 473 1
79 473 1
80 473 1
4 474 1
5 474 1
6 474 1
10 474 1
11 474 1
14 474 1
15 474 1
16 474 1
17 474 1
18 474 1
19 474 1
20 474 1
23 474 1
24 474 1
25 474 1
27 474 1
28 474 1
31 474 1
33 474 1
34 474 1
42 474 1
45 474 1
47 474 1
53 474 1
54 474 1
55 474 1
56 474 1
62 474 1
63 474 1
64 474 1
65 474 1
66 474 1
68 474 1
70 474 1
71 474 1
73 474 1
74 474 1
75 474 1
77 474 1
79 474 1
80 474 1
3 475 1
4 475 1
5 475 1
8 475 1
9 475 1
10 475 1
13 475 1
14 475 1
15 475 1
17 475 1
18 475 1
21 475 1
22 475 1
25 475 1
26 475 1
29 475 1
30 475 1
34 475 1
38 475 1
42 475 1
45 475 1
46 475 1
49 475 1
51 475 1
53 475 1
55 475 1
56 475 1
57 475 1
62 475 1
65 475 1
67 475 1
68 475 1
70 475 1
71 475 1
72 475 1
73 475 1
74 475 1
77 475 1
78 475 1
79 475 1
80 475 1
3 476 1
4 476 1
7 476 1
9 476 1
12 476 1
18 476 1
19 476 1
24 476 1
26 476 1
27 476 1
28 476 1
33 476 1
38 476 1
40 476 1
43 476 1
46 476 1
48 476 1
49 476 1
50 476 1
51 476 1
53 476 1
54 476 1
55 476 1
58 476 1
65 476 1
66 476 1
71 476 1
72 476 1
73 476 1
76 476 1
77 476 1
78 476 1
80 476 1
1 477 1
3 477 1
6 477 1
10 477 1
14 477 1
15 477 1
16 477 1
18 477 1
19 477 1
20 477 1
23 477 1
24 477 1
25 477 1
27 477 1
28 477 1
29 477 1
30 477 1
31 477 1
34 477 1
40 477 1
42 477 1
43 477 1
45 477 1
46 477 1
47 477 1
48 477 1
49 477 1
50 477 1
52 477 1
54 477 1
56 477 1
59 477 1
62 477 1
63 477 1
65 477 1
66 477 1
69 477 1
70 477 1
71 477 1
72 477 1
73 477 1
75 477 1
2 478 1
3 478 1
4 478 1
8 478 1
9 478 1
10 478 1
11 478 1
13 478 1
15 478 1
18 478 1
20 478 1
25 478 1
26 478 1
31 478 1
38 478 1
42 478 1
45 478 1
47 478 1
49 478 1
50 478 1
51 478 1
52 478 1
53 478 1
55 478 1
56 478 1
57 478 1
59 478 1
61 478 1
62 478 1
66 478 1
67 478 1
69 478 1
71 478 1
72 478 1
73 478 1
74 478 1
75 478 1
76 478 1
77 478 1
78 478 1
80 478 1
1 479 1
7 479 1
9 479 1
10 479 1
11 479 1
12 479 1
15 479 1
21 479 1
24 479 1
26 479 1
28 479 1
30 479 1
31 479 1
33 479 1
34 479 1
38 479 1
43 479 1
45 479 1
46 479 1
52 479 1
55 479 1
57 479 1
58 479 1
61 479 1
62 479 1
64 479 1
66 479 1
69 479 1
70 479 1
72 479 1
73 479 1
75 479 1
76 479 1
78 479 1
2 480 1
3 480 1
4 480 1
5 480 1
6 480 1
9 480 1
11 480 1
15 480 1
17 480 1
19 480 1
20 480 1
21 480 1
23 480 1
24 480 1
28 480 1
29 480 1
30 480 1
31 480 1
40 480 1
43 480 1
45 480 1
46 480 1
47 480 1
48 480 1
49 480 1
53 480 1
54 480 1
57 480 1
58 480 1
60 480 1
62 480 1
64 480 1
68 480 1
69 480 1
75 480 1
76 480 1
77 480 1
78 480 1
79 480 1
1 481 1
3 481 1
4 481 1
6 481 1
7 481 1
10 481 1
12 481 1
13 481 1
15 481 1
17 481 1
20 481 1
21 481 1
24 481 1
27 481 1
28 481 1
30 481 1
31 481 1
33 481 1
34 481 1
44 481 1
45 481 1
46 481 1
47 481 1
48 481 1
50 481 1
52 481 1
54 481 1
57 481 1
58 481 1
60 481 1
61 481 1
64 481 1
65 481 1
66 481 1
71 481 1
73 481 1
75 481 1
77 481 1
1 482 1
2 482 1
7 482 1
11 482 1
13 482 1
14 482 1
15 482 1
17 482 1
18 482 1
21 482 1
24 482 1
26 482 1
30 482 1
31 482 1
33 482 1
45 482 1
47 482 1
49 482 1
50 482 1
51 482 1
54 482 1
59 482 1
63 482 1
65 482 1
66 482 1
69 482 1
72 482 1
73 482 1
75 482 1
1 483 1
3 483 1
4 483 1
5 483 1
7 483 1
9 483 1
11 483 1
13 483 1
14 483 1
15 483 1
19 483 1
22 483 1
23 483 1
25 483 1
26 483 1
30 483 1
31 483 1
46 483 1
48 483 1
50 483 1
51 483 1
52 483 1
53 483 1
54 483 1
55 483 1
56 483 1
57 483 1
59 483 1
60 483 1
61 483 1
63 483 1
64 483 1
67 483 1
68 483 1
69 483 1
70 483 1
74 483 1
75 483 1
76 483 1
79 483 1
80 483 1
2 484 1
4 484 1
7 484 1
8 484 1
9 484 1
10 484 1
12 484 1
13 484 1
17 484 1
19 484 1
22 484 1
23 484 1
25 484 1
28 484 1
29 484 1
30 484 1
40 484 1
46 484 1
47 484 1
48 484 1
49 484 1
50 484 1
51 484 1
53 484 1
55 484 1
57 484 1
59 484 1
61 484 1
62 484 1
63 484 1
66 484 1
67 484 1
68 484 1
70 484 1
71 484 1
73 484 1
74 484 1
75 484 1
79 484 1
1 485 1
2 485 1
3 485 1
4 485 1
5 485 1
8 485 1
10 485 1
12 485 1
13 485 1
14 485 1
16 485 1
19 485 1
20 485 1
21 485 1
24 485 1
25 485 1
27 485 1
28 485 1
29 485 1
31 485 1
33 485 1
42 485 1
44 485 1
45 485 1
50 485 1
51 485 1
57 485 1
58 485 1
59 485 1
60 485 1
61 485 1
65 485 1
67 485 1
71 485 1
72 485 1
74 485 1
76 485 1
78 485 1
79 485 1
2 486 1
3 486 1
4 486 1
6 486 1
15 486 1
16 486 1
17 486 1
21 486 1
22 486 1
24 486 1
33 486 1
34 486 1
38 486 1
40 486 1
42 486 1
44 486 1
45 486 1
49 486 1
50 486 1
53 486 1
54 486 1
58 486 1
59 486 1
61 486 1
62 486 1
63 486 1
65 486 1
68 486 1
69 486 1
70 486 1
72 486 1
74 486 1
76 486 1
78 486 1
80 486 1
2 487 1
3 487 1
6 487 1
7 487 1
9 487 1
17 487 1
19 487 1
20 487 1
21 487 1
22 487 1
23 487 1
24 487 1
25 487 1
26 487 1
27 487 1
30 487 1
31 487 1
34 487 1
38 487 1
40 487 1
43 487 1
46 487 1
47 487 1
48 487 1
50 487 1
51 487 1
53 487 1
56 487 1
59 487 1
60 487 1
61 487 1
62 487 1
67 487 1
68 487 1
74 487 1
75 487 1
3 488 1
7 488 1
8 488 1
9 488 1
11 488 1
13 488 1
14 488 1
15 488 1
16 488 1
18 488 1
22 488 1
23 488 1
28 488 1
29 488 1
30 488 1
31 488 1
43 488 1
45 488 1
46 488 1
49 488 1
50 488 1
52 488 1
54 488 1
55 488 1
56 488 1
57 488 1
58 488 1
59 488 1
60 488 1
61 488 1
62 488 1
65 488 1
68 488 1
71 488 1
73 488 1
77 488 1
78 488 1
1 489 1
4 489 1
8 489 1
9 489 1
10 489 1
11 489 1
12 489 1
14 489 1
15 489 1
18 489 1
19 489 1
21 489 1
22 489 1
23 489 1
24 489 1
25 489 1
26 489 1
28 489 1
29 489 1
31 489 1
33 489 1
40 489 1
42 489 1
46 489 1
47 489 1
50 489 1
52 489 1
55 489 1
61 489 1
62 489 1
65 489 1
68 489 1
72 489 1
74 489 1
78 489 1
79 489 1
2 490 1
4 490 1
5 490 1
6 490 1
8 490 1
13 490 1
19 490 1
20 490 1
22 490 1
25 490 1
28 490 1
31 490 1
33 490 1
34 490 1
38 490 1
42 490 1
44 490 1
45 490 1
46 490 1
49 490 1
50 490 1
51 490 1
52 490 1
53 490 1
56 490 1
58 490 1
62 490 1
65 490 1
74 490 1
75 490 1
76 490 1
77 490 1
1 491 1
2 491 1
3 491 1
5 491 1
6 491 1
9 491 1
10 491 1
12 491 1
13 491 1
16 491 1
18 491 1
20 491 1
21 491 1
23 491 1
24 491 1
25 491 1
30 491 1
33 491 1
34 491 1
38 491 1
40 491 1
42 491 1
43 491 1
46 491 1
48 491 1
54 491 1
56 491 1
58 491 1
59 491 1
60 491 1
62 491 1
64 491 1
65 491 1
68 491 1
69 491 1
70 491 1
74 491 1
76 491 1
77 491 1
78 491 1
79 491 1
3 492 1
6 492 1
7 492 1
8 492 1
11 492 1
14 492 1
15 492 1
16 492 1
17 492 1
20 492 1
21 492 1
24 492 1
25 492 1
27 492 1
28 492 1
30 492 1
38 492 1
40 492 1
43 492 1
46 492 1
47 492 1
56 492 1
59 492 1
60 492 1
61 492 1
62 492 1
64 492 1
66 492 1
76 492 1
77 492 1
78 492 1
4 493 1
9 493 1
11 493 1
15 493 1
17 493 1
20 493 1
22 493 1
23 493 1
24 493 1
27 493 1
29 493 1
30 493 1
31 493 1
33 493 1
42 493 1
43 493 1
47 493 1
48 493 1
49 493 1
51 493 1
55 493 1
56 493 1
57 493 1
58 493 1
61 493 1
65 493 1
66 493 1
68 493 1
69 493 1
71 493 1
73 493 1
77 493 1
78 493 1
79 493 1
1 494 1
2 494 1
4 494 1
5 494 1
6 494 1
7 494 1
8 494 1
9 494 1
10 494 1
11 494 1
13 494 1
18 494 1
23 494 1
24 494 1
26 494 1
28 494 1
31 494 1
38 494 1
45 494 1
46 494 1
47 494 1
48 494 1
54 494 1
58 494 1
60 494 1
63 494 1
70 494 1
72 494 1
73 494 1
74 494 1
75 494 1
76 494 1
77 494 1
79 494 1
80 494 1
2 495 1
3 495 1
4 495 1
5 495 1
8 495 1
10 495 1
13 495 1
15 495 1
16 495 1
18 495 1
19 495 1
22 495 1
23 495 1
25 495 1
26 495 1
28 495 1
29 495 1
30 495 1
33 495 1
34 495 1
43 495 1
44 495 1
45 495 1
46 495 1
48 495 1
49 495 1
51 495 1
52 495 1
53 495 1
55 495 1
56 495 1
60 495 1
62 495 1
63 495 1
64 495 1
65 495 1
67 495 1
68 495 1
69 495 1
70 495 1
71 495 1
73 495 1
76 495 1
78 495 1
79 495 1
1 496 1
2 496 1
3 496 1
6 496 1
10 496 1
11 496 1
12 496 1
15 496 1
17 496 1
19 496 1
20 496 1
22 496 1
23 496 1
25 496 1
27 496 1
28 496 1
33 496 1
40 496 1
45 496 1
47 496 1
48 496 1
50 496 1
51 496 1
52 496 1
53 496 1
55 496 1
56 496 1
57 496 1
58 496 1
59 496 1
60 496 1
62 496 1
64 496 1
66 496 1
67 496 1
68 496 1
70 496 1
72 496 1
73 496 1
74 496 1
76 496 1
78 496 1
4 498 1
5 498 1
6 498 1
7 498 1
10 498 1
11 498 1
12 498 1
13 498 1
14 498 1
16 498 1
17 498 1
18 498 1
19 498 1
21 498 1
22 498 1
23 498 1
24 498 1
26 498 1
29 498 1
31 498 1
33 498 1
34 498 1
38 498 1
42 498 1
44 498 1
45 498 1
50 498 1
52 498 1
53 498 1
54 498 1
55 498 1
56 498 1
59 498 1
62 498 1
63 498 1
64 498 1
67 498 1
68 498 1
71 498 1
72 498 1
74 498 1
75 498 1
77 498 1
78 498 1
1 499 1
2 499 1
5 499 1
7 499 1
9 499 1
15 499 1
16 499 1
19 499 1
20 499 1
26 499 1
27 499 1
28 499 1
30 499 1
33 499 1
34 499 1
43 499 1
44 499 1
45 499 1
46 499 1
47 499 1
48 499 1
49 499 1
51 499 1
54 499 1
56 499 1
58 499 1
59 499 1
61 499 1
62 499 1
64 499 1
66 499 1
69 499 1
71 499 1
75 499 1
76 499 1
77 499 1
78 499 1
79 499 1
80 499 1
1 500 1
3 500 1
5 500 1
7 500 1
8 500 1
10 500 1
12 500 1
15 500 1
20 500 1
22 500 1
23 500 1
25 500 1
26 500 1
38 500 1
40 500 1
44 500 1
47 500 1
48 500 1
49 500 1
50 500 1
51 500 1
56 500 1
57 500 1
58 500 1
61 500 1
65 500 1
66 500 1
67 500 1
70 500 1
71 500 1
73 500 1
79 500 1
4 501 1
9 501 1
10 501 1
12 501 1
13 501 1
15 501 1
20 501 1
21 501 1
28 501 1
29 501 1
33 501 1
34 501 1
38 501 1
40 501 1
43 501 1
44 501 1
46 501 1
48 501 1
51 501 1
57 501 1
60 501 1
63 501 1
67 501 1
68 501 1
75 501 1
76 501 1
78 501 1
80 501 1
1 502 1
2 502 1
5 502 1
6 502 1
7 502 1
8 502 1
9 502 1
11 502 1
12 502 1
13 502 1
14 502 1
18 502 1
21 502 1
22 502 1
24 502 1
26 502 1
30 502 1
31 502 1
34 502 1
38 502 1
42 502 1
43 502 1
45 502 1
48 502 1
50 502 1
53 502 1
55 502 1
57 502 1
60 502 1
62 502 1
63 502 1
64 502 1
69 502 1
70 502 1
71 502 1
72 502 1
75 502 1
76 502 1
77 502 1
78 502 1
79 502 1
3 503 1
5 503 1
8 503 1
13 503 1
15 503 1
16 503 1
18 503 1
19 503 1
20 503 1
22 503 1
26 503 1
27 503 1
29 503 1
33 503 1
43 503 1
45 503 1
46 503 1
49 503 1
50 503 1
52 503 1
53 503 1
54 503 1
57 503 1
60 503 1
62 503 1
64 503 1
65 503 1
66 503 1
68 503 1
70 503 1
71 503 1
76 503 1
77 503 1
80 503 1
1 504 1
4 504 1
6 504 1
10 504 1
12 504 1
15 504 1
17 504 1
21 504 1
22 504 1
23 504 1
25 504 1
26 504 1
30 504 1
33 504 1
34 504 1
38 504 1
45 504 1
47 504 1
50 504 1
53 504 1
54 504 1
55 504 1
57 504 1
58 504 1
59 504 1
64 504 1
66 504 1
67 504 1
69 504 1
70 504 1
74 504 1
75 504 1
76 504 1
77 504 1
78 504 1
79 504 1
1 505 1
2 505 1
5 505 1
6 505 1
7 505 1
9 505 1
12 505 1
13 505 1
14 505 1
15 505 1
18 505 1
19 505 1
20 505 1
21 505 1
28 505 1
31 505 1
33 505 1
38 505 1
40 505 1
43 505 1
45 505 1
48 505 1
50 505 1
51 505 1
52 505 1
53 505 1
54 505 1
55 505 1
58 505 1
60 505 1
61 505 1
63 505 1
64 505 1
65 505 1
66 505 1
67 505 1
68 505 1
70 505 1
71 505 1
72 505 1
77 505 1
80 505 1
3 506 1
4 506 1
5 506 1
7 506 1
8 506 1
12 506 1
13 506 1
18 506 1
20 506 1
21 506 1
24 506 1
26 506 1
27 506 1
34 506 1
38 506 1
43 506 1
46 506 1
47 506 1
49 506 1
50 506 1
51 506 1
53 506 1
56 506 1
58 506 1
60 506 1
63 506 1
66 506 1
69 506 1
74 506 1
77 506 1
79 506 1
80 506 1
2 507 1
11 507 1
13 507 1
14 507 1
16 507 1
18 507 1
20 507 1
21 507 1
22 507 1
25 507 1
26 507 1
29 507 1
33 507 1
34 507 1
38 507 1
40 507 1
42 507 1
43 507 1
44 507 1
45 507 1
47 507 1
48 507 1
49 507 1
50 507 1
56 507 1
60 507 1
63 507 1
64 507 1
65 507 1
68 507 1
70 507 1
71 507 1
72 507 1
73 507 1
74 507 1
75 507 1
77 507 1
78 507 1
79 507 1
3 508 1
5 508 1
6 508 1
7 508 1
11 508 1
12 508 1
16 508 1
17 508 1
21 508 1
23 508 1
30 508 1
31 508 1
33 508 1
34 508 1
40 508 1
42 508 1
43 508 1
44 508 1
51 508 1
53 508 1
56 508 1
57 508 1
59 508 1
62 508 1
63 508 1
64 508 1
66 508 1
69 508 1
70 508 1
73 508 1
79 508 1
80 508 1
7 509 1
12 509 1
14 509 1
16 509 1
18 509 1
19 509 1
20 509 1
24 509 1
26 509 1
27 509 1
28 509 1
33 509 1
45 509 1
46 509 1
47 509 1
48 509 1
49 509 1
50 509 1
51 509 1
53 509 1
54 509 1
55 509 1
61 509 1
64 509 1
65 509 1
66 509 1
70 509 1
71 509 1
72 509 1
73 509 1
76 509 1
1 510 1
4 510 1
5 510 1
7 510 1
10 510 1
14 510 1
16 510 1
17 510 1
18 510 1
20 510 1
21 510 1
25 510 1
26 510 1
31 510 1
34 510 1
38 510 1
40 510 1
46 510 1
48 510 1
49 510 1
52 510 1
53 510 1
56 510 1
58 510 1
59 510 1
63 510 1
66 510 1
67 510 1
68 510 1
70 510 1
74 510 1
77 510 1
79 510 1
80 510 1
1 511 1
2 511 1
5 511 1
7 511 1
9 511 1
12 511 1
14 511 1
16 511 1
17 511 1
20 511 1
21 511 1
22 511 1
23 511 1
27 511 1
29 511 1
33 511 1
34 511 1
38 511 1
42 511 1
43 511 1
50 511 1
51 511 1
52 511 1
54 511 1
56 511 1
57 511 1
59 511 1
61 511 1
63 511 1
64 511 1
69 511 1
71 511 1
72 511 1
73 511 1
74 511 1
77 511 1
79 511 1
80 511 1
1 512 1
3 512 1
5 512 1
7 512 1
8 512 1
11 512 1
12 512 1
15 512 1
16 512 1
18 512 1
20 512 1
21 512 1
24 512 1
25 512 1
26 512 1
28 512 1
30 512 1
33 512 1
34 512 1
42 512 1
43 512 1
45 512 1
46 512 1
50 512 1
52 512 1
57 512 1
58 512 1
61 512 1
62 512 1
63 512 1
65 512 1
66 512 1
70 512 1
71 512 1
73 512 1
74 512 1
76 512 1
77 512 1
78 512 1
79 512 1
1 514 1
3 514 1
6 514 1
8 514 1
9 514 1
10 514 1
15 514 1
16 514 1
17 514 1
19 514 1
20 514 1
21 514 1
24 514 1
27 514 1
31 514 1
38 514 1
42 514 1
45 514 1
49 514 1
52 514 1
55 514 1
62 514 1
63 514 1
64 514 1
70 514 1
71 514 1
73 514 1
74 514 1
75 514 1
76 514 1
77 514 1
79 514 1
80 514 1
3 515 1
5 515 1
6 515 1
7 515 1
11 515 1
12 515 1
13 515 1
24 515 1
25 515 1
31 515 1
43 515 1
44 515 1
47 515 1
48 515 1
50 515 1
52 515 1
53 515 1
54 515 1
57 515 1
59 515 1
60 515 1
62 515 1
64 515 1
66 515 1
67 515 1
68 515 1
70 515 1
71 515 1
72 515 1
73 515 1
3 516 1
5 516 1
8 516 1
9 516 1
10 516 1
11 516 1
12 516 1
15 516 1
16 516 1
17 516 1
18 516 1
19 516 1
22 516 1
23 516 1
24 516 1
26 516 1
38 516 1
40 516 1
42 516 1
46 516 1
49 516 1
52 516 1
55 516 1
56 516 1
57 516 1
58 516 1
61 516 1
64 516 1
66 516 1
69 516 1
70 516 1
71 516 1
72 516 1
77 516 1
79 516 1
80 516 1
3 517 1
5 517 1
6 517 1
7 517 1
10 517 1
12 517 1
13 517 1
17 517 1
18 517 1
19 517 1
22 517 1
23 517 1
27 517 1
28 517 1
43 517 1
45 517 1
47 517 1
48 517 1
49 517 1
50 517 1
51 517 1
54 517 1
55 517 1
56 517 1
57 517 1
63 517 1
65 517 1
66 517 1
71 517 1
72 517 1
73 517 1
74 517 1
76 517 1
77 517 1
80 517 1
1 518 1
3 518 1
5 518 1
8 518 1
10 518 1
14 518 1
15 518 1
16 518 1
18 518 1
19 518 1
22 518 1
23 518 1
24 518 1
25 518 1
27 518 1
28 518 1
33 518 1
38 518 1
40 518 1
44 518 1
45 518 1
46 518 1
53 518 1
54 518 1
55 518 1
56 518 1
57 518 1
58 518 1
60 518 1
63 518 1
64 518 1
67 518 1
72 518 1
74 518 1
76 518 1
79 518 1
3 519 1
5 519 1
6 519 1
7 519 1
8 519 1
10 519 1
12 519 1
13 519 1
14 519 1
18 519 1
19 519 1
20 519 1
21 519 1
24 519 1
25 519 1
26 519 1
27 519 1
28 519 1
29 519 1
33 519 1
38 519 1
42 519 1
43 519 1
44 519 1
47 519 1
48 519 1
50 519 1
51 519 1
52 519 1
54 519 1
55 519 1
56 519 1
58 519 1
60 519 1
62 519 1
63 519 1
64 519 1
66 519 1
67 519 1
70 519 1
71 519 1
73 519 1
77 519 1
80 519 1
3 520 1
5 520 1
7 520 1
8 520 1
12 520 1
16 520 1
17 520 1
18 520 1
20 520 1
23 520 1
25 520 1
26 520 1
27 520 1
29 520 1
30 520 1
33 520 1
40 520 1
43 520 1
46 520 1
48 520 1
49 520 1
52 520 1
53 520 1
54 520 1
58 520 1
64 520 1
66 520 1
67 520 1
71 520 1
72 520 1
74 520 1
3 521 1
5 521 1
7 521 1
8 521 1
9 521 1
10 521 1
13 521 1
15 521 1
16 521 1
17 521 1
18 521 1
21 521 1
23 521 1
25 521 1
26 521 1
27 521 1
28 521 1
29 521 1
30 521 1
34 521 1
38 521 1
44 521 1
49 521 1
51 521 1
52 521 1
53 521 1
54 521 1
57 521 1
58 521 1
60 521 1
63 521 1
64 521 1
66 521 1
68 521 1
71 521 1
72 521 1
74 521 1
75 521 1
76 521 1
78 521 1
80 521 1
1 522 1
3 522 1
4 522 1
5 522 1
7 522 1
13 522 1
15 522 1
18 522 1
19 522 1
21 522 1
25 522 1
26 522 1
27 522 1
28 522 1
30 522 1
33 522 1
34 522 1
38 522 1
43 522 1
48 522 1
49 522 1
51 522 1
53 522 1
56 522 1
58 522 1
59 522 1
63 522 1
64 522 1
66 522 1
67 522 1
69 522 1
70 522 1
71 522 1
72 522 1
75 522 1
78 522 1
79 522 1
80 522 1
2 523 1
3 523 1
4 523 1
5 523 1
8 523 1
9 523 1
11 523 1
14 523 1
17 523 1
18 523 1
19 523 1
20 523 1
25 523 1
26 523 1
27 523 1
29 523 1
33 523 1
34 523 1
38 523 1
42 523 1
43 523 1
45 523 1
46 523 1
48 523 1
51 523 1
53 523 1
54 523 1
55 523 1
57 523 1
59 523 1
61 523 1
63 523 1
64 523 1
65 523 1
66 523 1
67 523 1
70 523 1
71 523 1
72 523 1
75 523 1
76 523 1
78 523 1
79 523 1
80 523 1
2 524 1
4 524 1
5 524 1
6 524 1
7 524 1
9 524 1
10 524 1
14 524 1
15 524 1
16 524 1
20 524 1
25 524 1
26 524 1
27 524 1
29 524 1
30 524 1
42 524 1
43 524 1
45 524 1
47 524 1
51 524 1
52 524 1
53 524 1
55 524 1
56 524 1
58 524 1
59 524 1
61 524 1
63 524 1
66 524 1
67 524 1
70 524 1
72 524 1
73 524 1
75 524 1
76 524 1
77 524 1
78 524 1
80 524 1
1 525 1
2 525 1
10 525 1
11 525 1
13 525 1
14 525 1
15 525 1
17 525 1
20 525 1
21 525 1
25 525 1
26 525 1
27 525 1
30 525 1
34 525 1
40 525 1
45 525 1
46 525 1
48 525 1
49 525 1
51 525 1
52 525 1
53 525 1
54 525 1
57 525 1
60 525 1
61 525 1
63 525 1
67 525 1
68 525 1
71 525 1
75 525 1
77 525 1
78 525 1
4 526 1
6 526 1
8 526 1
11 526 1
18 526 1
20 526 1
21 526 1
25 526 1
26 526 1
27 526 1
31 526 1
34 526 1
38 526 1
42 526 1
44 526 1
46 526 1
48 526 1
49 526 1
51 526 1
52 526 1
54 526 1
56 526 1
57 526 1
58 526 1
59 526 1
62 526 1
63 526 1
67 526 1
68 526 1
69 526 1
70 526 1
71 526 1
72 526 1
73 526 1
74 526 1
79 526 1
80 526 1
2 527 1
3 527 1
4 527 1
6 527 1
7 527 1
8 527 1
9 527 1
11 527 1
15 527 1
16 527 1
18 527 1
20 527 1
22 527 1
25 527 1
26 527 1
31 527 1
42 527 1
43 527 1
46 527 1
47 527 1
48 527 1
53 527 1
54 527 1
56 527 1
57 527 1
58 527 1
59 527 1
60 527 1
61 527 1
62 527 1
64 527 1
65 527 1
67 527 1
69 527 1
70 527 1
71 527 1
72 527 1
73 527 1
77 527 1
80 527 1
1 528 1
2 528 1
5 528 1
7 528 1
9 528 1
10 528 1
11 528 1
13 528 1
15 528 1
18 528 1
20 528 1
21 528 1
22 528 1
26 528 1
31 528 1
40 528 1
42 528 1
46 528 1
50 528 1
51 528 1
53 528 1
55 528 1
56 528 1
58 528 1
61 528 1
62 528 1
65 528 1
66 528 1
70 528 1
72 528 1
74 528 1
75 528 1
78 528 1
80 528 1
2 529 1
4 529 1
9 529 1
11 529 1
13 529 1
14 529 1
15 529 1
16 529 1
17 529 1
22 529 1
25 529 1
34 529 1
38 529 1
42 529 1
48 529 1
49 529 1
50 529 1
51 529 1
52 529 1
55 529 1
59 529 1
60 529 1
61 529 1
62 529 1
63 529 1
67 529 1
68 529 1
72 529 1
75 529 1
77 529 1
78 529 1
79 529 1
1 530 1
2 530 1
5 530 1
7 530 1
9 530 1
12 530 1
14 530 1
16 530 1
17 530 1
20 530 1
21 530 1
22 530 1
23 530 1
27 530 1
29 530 1
33 530 1
34 530 1
38 530 1
42 530 1
43 530 1
50 530 1
51 530 1
52 530 1
54 530 1
56 530 1
57 530 1
61 530 1
63 530 1
64 530 1
69 530 1
72 530 1
73 530 1
74 530 1
79 530 1
80 530 1
5 531 1
6 531 1
7 531 1
9 531 1
10 531 1
11 531 1
12 531 1
17 531 1
18 531 1
19 531 1
25 531 1
26 531 1
27 531 1
28 531 1
30 531 1
31 531 1
33 531 1
34 531 1
38 531 1
43 531 1
46 531 1
49 531 1
50 531 1
55 531 1
57 531 1
58 531 1
64 531 1
65 531 1
66 531 1
70 531 1
72 531 1
75 531 1
78 531 1
80 531 1
3 532 1
5 532 1
6 532 1
7 532 1
11 532 1
12 532 1
13 532 1
24 532 1
25 532 1
31 532 1
42 532 1
43 532 1
44 532 1
47 532 1
48 532 1
50 532 1
52 532 1
53 532 1
54 532 1
57 532 1
59 532 1
60 532 1
62 532 1
66 532 1
67 532 1
68 532 1
70 532 1
71 532 1
72 532 1
73 532 1
77 532 1
3 533 1
4 533 1
6 533 1
7 533 1
8 533 1
9 533 1
13 533 1
14 533 1
15 533 1
21 533 1
29 533 1
31 533 1
33 533 1
34 533 1
38 533 1
40 533 1
44 533 1
45 533 1
46 533 1
49 533 1
50 533 1
53 533 1
54 533 1
57 533 1
58 533 1
59 533 1
61 533 1
62 533 1
63 533 1
67 533 1
68 533 1
69 533 1
74 533 1
75 533 1
78 533 1
79 533 1
80 533 1
1 534 1
2 534 1
3 534 1
6 534 1
9 534 1
10 534 1
12 534 1
13 534 1
15 534 1
16 534 1
17 534 1
18 534 1
20 534 1
22 534 1
23 534 1
26 534 1
30 534 1
33 534 1
34 534 1
43 534 1
44 534 1
46 534 1
50 534 1
55 534 1
57 534 1
58 534 1
59 534 1
61 534 1
63 534 1
64 534 1
65 534 1
69 534 1
72 534 1
73 534 1
74 534 1
75 534 1
78 534 1
79 534 1
7 535 1
12 535 1
14 535 1
16 535 1
18 535 1
19 535 1
20 535 1
24 535 1
26 535 1
27 535 1
28 535 1
33 535 1
45 535 1
46 535 1
47 535 1
48 535 1
49 535 1
50 535 1
51 535 1
53 535 1
54 535 1
55 535 1
61 535 1
64 535 1
65 535 1
66 535 1
70 535 1
71 535 1
72 535 1
73 535 1
74 535 1
76 535 1
3 536 1
4 536 1
5 536 1
6 536 1
7 536 1
8 536 1
9 536 1
14 536 1
15 536 1
18 536 1
19 536 1
24 536 1
25 536 1
26 536 1
27 536 1
34 536 1
40 536 1
42 536 1
46 536 1
47 536 1
50 536 1
52 536 1
54 536 1
55 536 1
56 536 1
57 536 1
58 536 1
59 536 1
62 536 1
64 536 1
66 536 1
67 536 1
68 536 1
70 536 1
71 536 1
73 536 1
75 536 1
76 536 1
77 536 1
78 536 1
1 537 1
2 537 1
3 537 1
6 537 1
9 537 1
11 537 1
13 537 1
14 537 1
16 537 1
17 537 1
20 537 1
21 537 1
22 537 1
23 537 1
24 537 1
25 537 1
27 537 1
29 537 1
31 537 1
33 537 1
34 537 1
38 537 1
40 537 1
42 537 1
45 537 1
46 537 1
49 537 1
50 537 1
52 537 1
54 537 1
55 537 1
57 537 1
58 537 1
60 537 1
61 537 1
62 537 1
63 537 1
66 537 1
67 537 1
68 537 1
69 537 1
70 537 1
74 537 1
75 537 1
76 537 1
77 537 1
78 537 1
79 537 1
7 538 1
9 538 1
10 538 1
17 538 1
19 538 1
20 538 1
21 538 1
22 538 1
23 538 1
25 538 1
28 538 1
30 538 1
33 538 1
34 538 1
38 538 1
43 538 1
44 538 1
45 538 1
46 538 1
50 538 1
51 538 1
58 538 1
62 538 1
63 538 1
64 538 1
65 538 1
69 538 1
70 538 1
72 538 1
74 538 1
75 538 1
77 538 1
78 538 1
3 539 1
5 539 1
6 539 1
7 539 1
10 539 1
12 539 1
13 539 1
17 539 1
18 539 1
19 539 1
22 539 1
23 539 1
27 539 1
28 539 1
43 539 1
45 539 1
47 539 1
48 539 1
49 539 1
50 539 1
51 539 1
54 539 1
55 539 1
56 539 1
57 539 1
63 539 1
65 539 1
66 539 1
71 539 1
72 539 1
74 539 1
76 539 1
77 539 1
80 539 1
1 540 1
3 540 1
4 540 1
6 540 1
7 540 1
8 540 1
11 540 1
12 540 1
13 540 1
15 540 1
17 540 1
21 540 1
25 540 1
26 540 1
27 540 1
28 540 1
29 540 1
31 540 1
34 540 1
40 540 1
42 540 1
46 540 1
50 540 1
52 540 1
57 540 1
58 540 1
59 540 1
60 540 1
62 540 1
68 540 1
71 540 1
75 540 1
76 540 1
77 540 1
78 540 1
79 540 1
2 541 1
3 541 1
6 541 1
8 541 1
9 541 1
10 541 1
12 541 1
13 541 1
14 541 1
15 541 1
16 541 1
18 541 1
21 541 1
24 541 1
25 541 1
29 541 1
30 541 1
34 541 1
38 541 1
42 541 1
45 541 1
46 541 1
49 541 1
50 541 1
52 541 1
55 541 1
59 541 1
60 541 1
61 541 1
63 541 1
67 541 1
69 541 1
70 541 1
73 541 1
74 541 1
75 541 1
76 541 1
78 541 1
79 541 1
1 542 1
10 542 1
15 542 1
16 542 1
17 542 1
18 542 1
22 542 1
27 542 1
29 542 1
30 542 1
33 542 1
38 542 1
43 542 1
44 542 1
46 542 1
47 542 1
50 542 1
51 542 1
52 542 1
53 542 1
54 542 1
56 542 1
57 542 1
61 542 1
64 542 1
65 542 1
70 542 1
72 542 1
73 542 1
74 542 1
79 542 1
3 543 1
4 543 1
5 543 1
7 543 1
8 543 1
12 543 1
16 543 1
17 543 1
18 543 1
20 543 1
23 543 1
25 543 1
26 543 1
27 543 1
30 543 1
33 543 1
40 543 1
43 543 1
46 543 1
48 543 1
49 543 1
52 543 1
53 543 1
54 543 1
58 543 1
64 543 1
66 543 1
67 543 1
71 543 1
72 543 1
74 543 1
2 544 1
3 544 1
4 544 1
6 544 1
8 544 1
9 544 1
11 544 1
12 544 1
14 544 1
15 544 1
19 544 1
22 544 1
24 544 1
25 544 1
27 544 1
28 544 1
31 544 1
33 544 1
42 544 1
45 544 1
49 544 1
50 544 1
51 544 1
55 544 1
56 544 1
57 544 1
58 544 1
59 544 1
60 544 1
62 544 1
66 544 1
67 544 1
76 544 1
77 544 1
80 544 1
