%%MatrixMarket matrix coordinate integer general
100 714 5790
1 126 1
10 126 1
11 126 1
30 126 1
31 126 1
32 126 1
34 126 1
35 126 1
37 126 1
39 126 1
40 126 1
43 126 1
44 126 1
47 126 1
48 126 1
52 126 1
2 127 1
48 127 1
52 127 1
1 128 1
2 128 1
3 128 1
8 128 1
10 128 1
32 128 1
33 128 1
34 128 1
37 128 1
39 128 1
42 128 1
44 128 1
45 128 1
46 128 1
48 128 1
1 129 1
2 129 1
4 129 1
10 129 1
11 129 1
33 129 1
36 129 1
42 129 1
43 129 1
46 129 1
47 129 1
2 130 1
4 130 1
5 130 1
11 130 1
32 130 1
33 130 1
34 130 1
35 130 1
37 130 1
40 130 1
41 130 1
44 130 1
45 130 1
47 130 1
48 130 1
2 131 1
3 131 1
4 131 1
5 131 1
32 131 1
33 131 1
34 131 1
35 131 1
37 131 1
40 131 1
41 131 1
43 131 1
44 131 1
45 131 1
46 131 1
47 131 1
48 131 1
1 132 1
2 132 1
8 132 1
32 132 1
33 132 1
34 132 1
37 132 1
39 132 1
42 132 1
44 132 1
45 132 1
46 132 1
47 132 1
48 132 1
52 132 1
2 133 1
3 133 1
4 133 1
5 133 1
10 133 1
11 133 1
31 133 1
32 133 1
37 133 1
40 133 1
43 133 1
44 133 1
45 133 1
46 133 1
47 133 1
2 134 1
5 134 1
8 134 1
11 134 1
30 134 1
33 134 1
35 134 1
36 134 1
40 134 1
41 134 1
47 134 1
2 135 1
3 135 1
4 135 1
5 135 1
10 135 1
30 135 1
31 135 1
36 135 1
37 135 1
38 135 1
39 135 1
42 135 1
45 135 1
46 135 1
47 135 1
48 135 1
52 135 1
2 136 1
4 136 1
10 136 1
11 136 1
30 136 1
31 136 1
34 136 1
36 136 1
40 136 1
41 136 1
42 136 1
43 136 1
47 136 1
48 136 1
52 136 1
2 137 1
5 137 1
8 137 1
10 137 1
34 137 1
36 137 1
39 137 1
40 137 1
42 137 1
44 137 1
46 137 1
48 137 1
52 137 1
1 138 1
2 138 1
3 138 1
4 138 1
5 138 1
8 138 1
11 138 1
30 138 1
31 138 1
39 138 1
40 138 1
41 138 1
43 138 1
46 138 1
52 138 1
2 139 1
11 139 1
31 139 1
32 139 1
33 139 1
34 139 1
37 139 1
38 139 1
39 139 1
40 139 1
42 139 1
43 139 1
45 139 1
2 140 1
4 140 1
10 140 1
31 140 1
32 140 1
38 140 1
39 140 1
40 140 1
41 140 1
43 140 1
44 140 1
47 140 1
52 140 1
2 141 1
3 141 1
4 141 1
5 141 1
8 141 1
10 141 1
31 141 1
32 141 1
34 141 1
38 141 1
42 141 1
2 142 1
4 142 1
8 142 1
10 142 1
11 142 1
30 142 1
31 142 1
32 142 1
35 142 1
37 142 1
38 142 1
41 142 1
44 142 1
48 142 1
52 142 1
1 143 1
2 143 1
3 143 1
5 143 1
10 143 1
11 143 1
30 143 1
33 143 1
34 143 1
36 143 1
38 143 1
39 143 1
40 143 1
41 143 1
43 143 1
46 143 1
48 143 1
1 144 1
2 144 1
4 144 1
5 144 1
30 144 1
32 144 1
34 144 1
35 144 1
36 144 1
37 144 1
38 144 1
39 144 1
40 144 1
43 144 1
45 144 1
46 144 1
47 144 1
2 145 1
4 145 1
8 145 1
10 145 1
11 145 1
30 145 1
31 145 1
32 145 1
35 145 1
36 145 1
37 145 1
39 145 1
41 145 1
44 145 1
45 145 1
48 145 1
52 145 1
1 146 1
2 146 1
3 146 1
4 146 1
5 146 1
8 146 1
10 146 1
33 146 1
35 146 1
39 146 1
40 146 1
42 146 1
44 146 1
46 146 1
47 146 1
2 147 1
3 147 1
8 147 1
11 147 1
32 147 1
34 147 1
35 147 1
36 147 1
39 147 1
44 147 1
45 147 1
46 147 1
47 147 1
48 147 1
52 147 1
2 148 1
5 148 1
11 148 1
30 148 1
32 148 1
35 148 1
36 148 1
37 148 1
42 148 1
43 148 1
44 148 1
45 148 1
46 148 1
47 148 1
52 148 1
1 149 1
2 149 1
8 149 1
10 149 1
32 149 1
33 149 1
34 149 1
37 149 1
39 149 1
42 149 1
44 149 1
45 149 1
46 149 1
47 149 1
48 149 1
2 150 1
4 150 1
10 150 1
11 150 1
33 150 1
36 150 1
42 150 1
43 150 1
45 150 1
46 150 1
47 150 1
2 151 1
4 151 1
5 151 1
32 151 1
33 151 1
34 151 1
35 151 1
37 151 1
40 151 1
41 151 1
43 151 1
44 151 1
45 151 1
47 151 1
48 151 1
2 152 1
3 152 1
5 152 1
32 152 1
33 152 1
34 152 1
35 152 1
37 152 1
40 152 1
41 152 1
43 152 1
45 152 1
46 152 1
47 152 1
48 152 1
2 153 1
4 153 1
10 153 1
11 153 1
30 153 1
31 153 1
34 153 1
35 153 1
36 153 1
40 153 1
41 153 1
42 153 1
43 153 1
46 153 1
47 153 1
48 153 1
52 153 1
2 154 1
3 154 1
10 154 1
34 154 1
35 154 1
41 154 1
43 154 1
46 154 1
48 154 1
1 155 1
2 155 1
4 155 1
8 155 1
31 155 1
32 155 1
35 155 1
36 155 1
37 155 1
39 155 1
40 155 1
42 155 1
43 155 1
44 155 1
45 155 1
46 155 1
48 155 1
2 156 1
3 156 1
4 156 1
5 156 1
8 156 1
10 156 1
30 156 1
31 156 1
36 156 1
37 156 1
38 156 1
39 156 1
42 156 1
45 156 1
46 156 1
47 156 1
48 156 1
1 157 1
2 157 1
3 157 1
4 157 1
5 157 1
8 157 1
30 157 1
31 157 1
33 157 1
35 157 1
39 157 1
40 157 1
41 157 1
2 158 1
4 158 1
10 158 1
11 158 1
32 158 1
37 158 1
39 158 1
40 158 1
42 158 1
43 158 1
45 158 1
46 158 1
52 158 1
1 159 1
2 159 1
3 159 1
8 159 1
10 159 1
11 159 1
32 159 1
33 159 1
34 159 1
36 159 1
38 159 1
42 159 1
46 159 1
2 160 1
11 160 1
31 160 1
32 160 1
33 160 1
34 160 1
36 160 1
37 160 1
38 160 1
39 160 1
40 160 1
42 160 1
43 160 1
45 160 1
46 160 1
2 161 1
3 161 1
4 161 1
5 161 1
8 161 1
10 161 1
31 161 1
32 161 1
34 161 1
35 161 1
38 161 1
42 161 1
47 161 1
2 162 1
4 162 1
8 162 1
10 162 1
11 162 1
30 162 1
31 162 1
32 162 1
35 162 1
36 162 1
37 162 1
38 162 1
41 162 1
44 162 1
45 162 1
48 162 1
52 162 1
2 163 1
3 163 1
5 163 1
31 163 1
32 163 1
33 163 1
34 163 1
35 163 1
36 163 1
37 163 1
38 163 1
41 163 1
43 163 1
44 163 1
46 163 1
47 163 1
52 163 1
2 164 1
8 164 1
11 164 1
32 164 1
34 164 1
35 164 1
36 164 1
39 164 1
44 164 1
46 164 1
47 164 1
48 164 1
52 164 1
1 165 1
2 165 1
43 165 1
48 165 1
52 165 1
1 166 1
2 166 1
3 166 1
8 166 1
10 166 1
11 166 1
32 166 1
33 166 1
34 166 1
37 166 1
39 166 1
42 166 1
45 166 1
46 166 1
48 166 1
2 167 1
4 167 1
8 167 1
30 167 1
31 167 1
32 167 1
33 167 1
35 167 1
37 167 1
39 167 1
40 167 1
41 167 1
42 167 1
44 167 1
45 167 1
46 167 1
47 167 1
2 168 1
1 169 1
4 169 1
8 169 1
10 169 1
31 169 1
32 169 1
34 169 1
36 169 1
37 169 1
38 169 1
39 169 1
40 169 1
41 169 1
42 169 1
43 169 1
47 169 1
52 169 1
3 170 1
1 171 1
11 172 1
4 173 1
33 174 1
31 175 1
10 176 1
8 177 1
30 178 1
5 179 1
35 180 1
36 181 1
34 182 1
32 183 1
40 184 1
41 185 1
37 186 1
48 187 1
42 188 1
39 189 1
38 190 1
47 191 1
45 192 1
43 193 1
44 194 1
1 195 1
4 195 1
8 195 1
10 195 1
11 195 1
30 195 1
31 195 1
32 195 1
35 195 1
36 195 1
37 195 1
39 195 1
40 195 1
41 195 1
43 195 1
44 195 1
45 195 1
4 196 1
5 196 1
11 196 1
32 196 1
34 196 1
35 196 1
37 196 1
40 196 1
41 196 1
44 196 1
45 196 1
47 196 1
48 196 1
3 197 1
4 197 1
11 197 1
30 197 1
31 197 1
33 197 1
34 197 1
36 197 1
40 197 1
41 197 1
42 197 1
48 197 1
52 197 1
52 198 1
1 199 1
3 199 1
5 199 1
8 199 1
10 199 1
11 199 1
30 199 1
33 199 1
34 199 1
35 199 1
36 199 1
39 199 1
42 199 1
43 199 1
47 199 1
48 199 1
52 199 1
4 200 1
8 200 1
11 200 1
32 200 1
34 200 1
36 200 1
37 200 1
43 200 1
44 200 1
45 200 1
48 200 1
4 201 1
5 201 1
10 201 1
30 201 1
31 201 1
32 201 1
33 201 1
34 201 1
35 201 1
36 201 1
38 201 1
39 201 1
40 201 1
41 201 1
42 201 1
43 201 1
52 201 1
46 202 1
3 203 1
5 203 1
8 203 1
35 203 1
39 203 1
40 203 1
41 203 1
42 203 1
43 203 1
44 203 1
52 203 1
3 204 1
5 204 1
11 204 1
30 204 1
32 204 1
34 204 1
35 204 1
36 204 1
37 204 1
41 204 1
42 204 1
44 204 1
45 204 1
48 204 1
52 204 1
3 205 1
4 205 1
5 205 1
8 205 1
10 205 1
11 205 1
30 205 1
33 205 1
34 205 1
36 205 1
40 205 1
43 205 1
46 205 1
47 205 1
48 205 1
1 206 1
3 206 1
5 206 1
8 206 1
10 206 1
30 206 1
32 206 1
33 206 1
35 206 1
38 206 1
40 206 1
43 206 1
44 206 1
47 206 1
52 206 1
3 207 1
5 207 1
8 207 1
11 207 1
31 207 1
34 207 1
37 207 1
38 207 1
39 207 1
40 207 1
41 207 1
43 207 1
45 207 1
46 207 1
52 207 1
1 208 1
3 208 1
4 208 1
30 208 1
31 208 1
33 208 1
34 208 1
35 208 1
36 208 1
41 208 1
42 208 1
44 208 1
46 208 1
48 208 1
52 208 1
1 209 1
3 209 1
5 209 1
10 209 1
30 209 1
31 209 1
32 209 1
37 209 1
41 209 1
42 209 1
45 209 1
1 210 1
3 210 1
8 210 1
10 210 1
30 210 1
31 210 1
36 210 1
37 210 1
39 210 1
40 210 1
43 210 1
45 210 1
46 210 1
9 211 1
7 212 1
6 213 1
15 214 1
16 215 1
12 216 1
13 217 1
14 218 1
18 219 1
17 220 1
19 221 1
23 222 1
20 223 1
21 224 1
25 225 1
24 226 1
22 227 1
28 228 1
27 229 1
26 230 1
29 231 1
49 232 1
50 233 1
53 234 1
51 235 1
75 236 1
78 237 1
76 238 1
79 239 1
81 240 1
84 241 1
82 242 1
80 243 1
77 244 1
83 245 1
86 246 1
85 247 1
87 248 1
88 249 1
91 250 1
90 251 1
89 252 1
92 253 1
3 254 1
5 254 1
8 254 1
10 254 1
15 254 1
16 254 1
18 254 1
19 254 1
21 254 1
23 254 1
24 254 1
25 254 1
28 254 1
29 254 1
30 254 1
31 254 1
32 254 1
33 254 1
34 254 1
35 254 1
38 254 1
42 254 1
43 254 1
44 254 1
45 254 1
46 254 1
48 254 1
52 254 1
53 254 1
76 254 1
78 254 1
81 254 1
82 254 1
84 254 1
86 254 1
87 254 1
88 254 1
89 254 1
90 254 1
91 254 1
92 254 1
9 255 1
10 255 1
12 255 1
15 255 1
17 255 1
18 255 1
19 255 1
20 255 1
21 255 1
22 255 1
27 255 1
28 255 1
29 255 1
31 255 1
32 255 1
34 255 1
35 255 1
37 255 1
38 255 1
39 255 1
41 255 1
43 255 1
44 255 1
46 255 1
49 255 1
51 255 1
53 255 1
78 255 1
79 255 1
80 255 1
81 255 1
85 255 1
86 255 1
87 255 1
92 255 1
3 256 1
5 256 1
7 256 1
8 256 1
9 256 1
10 256 1
13 256 1
15 256 1
17 256 1
18 256 1
24 256 1
26 256 1
27 256 1
29 256 1
30 256 1
31 256 1
32 256 1
33 256 1
34 256 1
35 256 1
38 256 1
42 256 1
43 256 1
44 256 1
45 256 1
46 256 1
48 256 1
50 256 1
51 256 1
52 256 1
53 256 1
75 256 1
77 256 1
78 256 1
82 256 1
85 256 1
86 256 1
89 256 1
90 256 1
91 256 1
92 256 1
6 257 1
7 257 1
9 257 1
14 257 1
15 257 1
17 257 1
18 257 1
21 257 1
22 257 1
23 257 1
24 257 1
25 257 1
26 257 1
28 257 1
49 257 1
51 257 1
75 257 1
80 257 1
81 257 1
82 257 1
83 257 1
84 257 1
85 257 1
86 257 1
88 257 1
91 257 1
92 257 1
1 258 1
3 258 1
4 258 1
6 258 1
7 258 1
10 258 1
11 258 1
17 258 1
20 258 1
21 258 1
22 258 1
23 258 1
27 258 1
31 258 1
33 258 1
34 258 1
35 258 1
37 258 1
40 258 1
42 258 1
44 258 1
46 258 1
50 258 1
53 258 1
75 258 1
76 258 1
77 258 1
80 258 1
81 258 1
85 258 1
88 258 1
89 258 1
92 258 1
1 259 1
6 259 1
8 259 1
16 259 1
18 259 1
20 259 1
23 259 1
24 259 1
26 259 1
29 259 1
30 259 1
31 259 1
33 259 1
35 259 1
36 259 1
37 259 1
38 259 1
39 259 1
40 259 1
42 259 1
47 259 1
48 259 1
49 259 1
51 259 1
76 259 1
77 259 1
79 259 1
81 259 1
82 259 1
83 259 1
86 259 1
88 259 1
89 259 1
90 259 1
92 259 1
4 260 1
5 260 1
9 260 1
11 260 1
12 260 1
16 260 1
17 260 1
18 260 1
19 260 1
20 260 1
22 260 1
23 260 1
24 260 1
25 260 1
28 260 1
31 260 1
32 260 1
33 260 1
35 260 1
36 260 1
39 260 1
42 260 1
43 260 1
45 260 1
47 260 1
49 260 1
50 260 1
52 260 1
53 260 1
75 260 1
76 260 1
78 260 1
79 260 1
80 260 1
82 260 1
83 260 1
85 260 1
87 260 1
88 260 1
90 260 1
92 260 1
3 261 1
5 261 1
7 261 1
8 261 1
12 261 1
13 261 1
15 261 1
16 261 1
17 261 1
18 261 1
20 261 1
22 261 1
25 261 1
27 261 1
29 261 1
30 261 1
33 261 1
37 261 1
39 261 1
41 261 1
42 261 1
45 261 1
48 261 1
50 261 1
51 261 1
52 261 1
77 261 1
79 261 1
80 261 1
82 261 1
84 261 1
90 261 1
92 261 1
3 262 1
4 262 1
6 262 1
8 262 1
9 262 1
10 262 1
11 262 1
12 262 1
13 262 1
14 262 1
15 262 1
17 262 1
18 262 1
23 262 1
25 262 1
26 262 1
29 262 1
30 262 1
34 262 1
36 262 1
38 262 1
39 262 1
44 262 1
46 262 1
47 262 1
48 262 1
75 262 1
76 262 1
77 262 1
78 262 1
80 262 1
83 262 1
84 262 1
86 262 1
87 262 1
88 262 1
90 262 1
91 262 1
92 262 1
3 263 1
4 263 1
7 263 1
8 263 1
9 263 1
11 263 1
13 263 1
14 263 1
17 263 1
20 263 1
21 263 1
23 263 1
25 263 1
28 263 1
30 263 1
31 263 1
32 263 1
35 263 1
36 263 1
37 263 1
41 263 1
43 263 1
47 263 1
48 263 1
53 263 1
77 263 1
79 263 1
81 263 1
83 263 1
84 263 1
85 263 1
87 263 1
92 263 1
1 264 1
4 264 1
5 264 1
6 264 1
7 264 1
8 264 1
10 264 1
11 264 1
14 264 1
15 264 1
16 264 1
20 264 1
23 264 1
27 264 1
28 264 1
29 264 1
30 264 1
31 264 1
34 264 1
35 264 1
39 264 1
40 264 1
41 264 1
44 264 1
45 264 1
46 264 1
48 264 1
51 264 1
52 264 1
53 264 1
76 264 1
78 264 1
83 264 1
89 264 1
90 264 1
91 264 1
92 264 1
1 265 1
4 265 1
5 265 1
6 265 1
8 265 1
9 265 1
11 265 1
12 265 1
19 265 1
20 265 1
23 265 1
24 265 1
25 265 1
26 265 1
27 265 1
28 265 1
29 265 1
30 265 1
32 265 1
37 265 1
38 265 1
40 265 1
43 265 1
45 265 1
48 265 1
49 265 1
51 265 1
52 265 1
53 265 1
75 265 1
78 265 1
79 265 1
81 265 1
82 265 1
84 265 1
87 265 1
88 265 1
91 265 1
92 265 1
1 266 1
3 266 1
4 266 1
7 266 1
9 266 1
10 266 1
11 266 1
13 266 1
16 266 1
18 266 1
19 266 1
20 266 1
22 266 1
25 266 1
26 266 1
27 266 1
28 266 1
31 266 1
33 266 1
34 266 1
35 266 1
37 266 1
40 266 1
42 266 1
44 266 1
46 266 1
50 266 1
51 266 1
53 266 1
75 266 1
80 266 1
86 266 1
87 266 1
89 266 1
92 266 1
1 267 1
6 267 1
7 267 1
8 267 1
10 267 1
12 267 1
14 267 1
15 267 1
16 267 1
17 267 1
18 267 1
19 267 1
25 267 1
26 267 1
27 267 1
30 267 1
32 267 1
33 267 1
34 267 1
36 267 1
40 267 1
41 267 1
42 267 1
43 267 1
44 267 1
46 267 1
47 267 1
48 267 1
49 267 1
51 267 1
75 267 1
76 267 1
77 267 1
81 267 1
82 267 1
84 267 1
85 267 1
86 267 1
87 267 1
89 267 1
90 267 1
91 267 1
92 267 1
3 268 1
5 268 1
6 268 1
8 268 1
10 268 1
12 268 1
13 268 1
17 268 1
21 268 1
25 268 1
26 268 1
28 268 1
30 268 1
31 268 1
32 268 1
33 268 1
34 268 1
35 268 1
38 268 1
42 268 1
43 268 1
44 268 1
45 268 1
46 268 1
48 268 1
49 268 1
50 268 1
52 268 1
53 268 1
75 268 1
76 268 1
79 268 1
80 268 1
81 268 1
83 268 1
85 268 1
86 268 1
91 268 1
92 268 1
3 269 1
4 269 1
8 269 1
11 269 1
13 269 1
14 269 1
16 269 1
18 269 1
21 269 1
23 269 1
27 269 1
28 269 1
30 269 1
31 269 1
32 269 1
35 269 1
36 269 1
37 269 1
41 269 1
43 269 1
47 269 1
48 269 1
50 269 1
51 269 1
76 269 1
77 269 1
79 269 1
82 269 1
85 269 1
88 269 1
89 269 1
91 269 1
92 269 1
1 270 1
4 270 1
5 270 1
8 270 1
11 270 1
12 270 1
14 270 1
15 270 1
16 270 1
17 270 1
19 270 1
20 270 1
21 270 1
23 270 1
24 270 1
26 270 1
27 270 1
28 270 1
29 270 1
30 270 1
32 270 1
37 270 1
38 270 1
40 270 1
43 270 1
45 270 1
48 270 1
49 270 1
52 270 1
75 270 1
76 270 1
78 270 1
79 270 1
80 270 1
82 270 1
83 270 1
84 270 1
86 270 1
88 270 1
89 270 1
92 270 1
1 271 1
4 271 1
5 271 1
8 271 1
9 271 1
11 271 1
12 271 1
13 271 1
15 271 1
20 271 1
22 271 1
24 271 1
26 271 1
27 271 1
28 271 1
30 271 1
32 271 1
37 271 1
38 271 1
40 271 1
43 271 1
45 271 1
48 271 1
49 271 1
50 271 1
52 271 1
53 271 1
77 271 1
79 271 1
80 271 1
84 271 1
85 271 1
87 271 1
88 271 1
89 271 1
90 271 1
92 271 1
3 272 1
4 272 1
7 272 1
8 272 1
10 272 1
11 272 1
13 272 1
14 272 1
15 272 1
18 272 1
19 272 1
22 272 1
23 272 1
24 272 1
25 272 1
26 272 1
27 272 1
30 272 1
34 272 1
36 272 1
38 272 1
39 272 1
44 272 1
46 272 1
47 272 1
48 272 1
49 272 1
50 272 1
51 272 1
76 272 1
77 272 1
78 272 1
83 272 1
84 272 1
86 272 1
90 272 1
92 272 1
1 273 1
6 273 1
8 273 1
14 273 1
15 273 1
17 273 1
19 273 1
20 273 1
21 273 1
22 273 1
25 273 1
26 273 1
30 273 1
31 273 1
33 273 1
35 273 1
36 273 1
37 273 1
38 273 1
39 273 1
40 273 1
42 273 1
47 273 1
48 273 1
50 273 1
75 273 1
78 273 1
79 273 1
81 273 1
83 273 1
84 273 1
85 273 1
87 273 1
88 273 1
90 273 1
91 273 1
92 273 1
6 274 1
7 274 1
12 274 1
13 274 1
15 274 1
16 274 1
17 274 1
18 274 1
19 274 1
20 274 1
23 274 1
24 274 1
26 274 1
29 274 1
49 274 1
75 274 1
78 274 1
79 274 1
80 274 1
82 274 1
83 274 1
84 274 1
85 274 1
87 274 1
88 274 1
89 274 1
93 274 1
93 275 1
3 276 1
4 276 1
6 276 1
8 276 1
9 276 1
10 276 1
11 276 1
12 276 1
13 276 1
14 276 1
15 276 1
16 276 1
17 276 1
19 276 1
20 276 1
21 276 1
22 276 1
23 276 1
29 276 1
30 276 1
34 276 1
36 276 1
38 276 1
39 276 1
44 276 1
46 276 1
47 276 1
48 276 1
49 276 1
50 276 1
76 276 1
77 276 1
78 276 1
80 276 1
81 276 1
82 276 1
86 276 1
87 276 1
88 276 1
91 276 1
93 276 1
3 277 1
5 277 1
6 277 1
7 277 1
8 277 1
10 277 1
17 277 1
18 277 1
22 277 1
25 277 1
28 277 1
29 277 1
30 277 1
31 277 1
32 277 1
33 277 1
34 277 1
35 277 1
38 277 1
42 277 1
43 277 1
44 277 1
45 277 1
46 277 1
48 277 1
49 277 1
52 277 1
53 277 1
78 277 1
79 277 1
81 277 1
82 277 1
83 277 1
84 277 1
85 277 1
86 277 1
87 277 1
90 277 1
93 277 1
1 278 1
3 278 1
4 278 1
10 278 1
11 278 1
12 278 1
13 278 1
14 278 1
16 278 1
20 278 1
21 278 1
22 278 1
23 278 1
24 278 1
27 278 1
28 278 1
29 278 1
31 278 1
33 278 1
34 278 1
35 278 1
37 278 1
40 278 1
42 278 1
44 278 1
46 278 1
49 278 1
51 278 1
77 278 1
78 278 1
84 278 1
85 278 1
89 278 1
91 278 1
93 278 1
3 279 1
4 279 1
6 279 1
8 279 1
10 279 1
11 279 1
15 279 1
16 279 1
17 279 1
18 279 1
19 279 1
23 279 1
25 279 1
26 279 1
27 279 1
28 279 1
29 279 1
30 279 1
34 279 1
36 279 1
38 279 1
39 279 1
44 279 1
46 279 1
47 279 1
48 279 1
75 279 1
77 279 1
78 279 1
80 279 1
81 279 1
83 279 1
86 279 1
88 279 1
90 279 1
91 279 1
93 279 1
3 280 1
4 280 1
6 280 1
8 280 1
10 280 1
11 280 1
13 280 1
14 280 1
21 280 1
22 280 1
24 280 1
26 280 1
27 280 1
30 280 1
34 280 1
36 280 1
38 280 1
39 280 1
44 280 1
46 280 1
47 280 1
48 280 1
49 280 1
50 280 1
80 280 1
81 280 1
82 280 1
83 280 1
84 280 1
85 280 1
87 280 1
88 280 1
89 280 1
90 280 1
93 280 1
3 281 1
5 281 1
6 281 1
8 281 1
9 281 1
10 281 1
12 281 1
13 281 1
16 281 1
17 281 1
18 281 1
19 281 1
20 281 1
21 281 1
23 281 1
25 281 1
26 281 1
28 281 1
30 281 1
31 281 1
32 281 1
33 281 1
34 281 1
35 281 1
38 281 1
42 281 1
43 281 1
44 281 1
45 281 1
46 281 1
48 281 1
52 281 1
53 281 1
76 281 1
78 281 1
81 281 1
84 281 1
89 281 1
93 281 1
3 282 1
5 282 1
6 282 1
7 282 1
8 282 1
9 282 1
16 282 1
22 282 1
24 282 1
25 282 1
27 282 1
30 282 1
33 282 1
37 282 1
39 282 1
41 282 1
42 282 1
45 282 1
48 282 1
50 282 1
51 282 1
52 282 1
77 282 1
78 282 1
79 282 1
80 282 1
81 282 1
84 282 1
86 282 1
87 282 1
88 282 1
91 282 1
93 282 1
4 283 1
5 283 1
7 283 1
9 283 1
11 283 1
13 283 1
14 283 1
16 283 1
17 283 1
19 283 1
20 283 1
21 283 1
23 283 1
24 283 1
26 283 1
28 283 1
29 283 1
31 283 1
32 283 1
33 283 1
35 283 1
36 283 1
39 283 1
42 283 1
43 283 1
45 283 1
47 283 1
49 283 1
50 283 1
52 283 1
53 283 1
75 283 1
78 283 1
80 283 1
83 283 1
84 283 1
85 283 1
86 283 1
87 283 1
90 283 1
93 283 1
7 284 1
10 284 1
13 284 1
15 284 1
16 284 1
17 284 1
18 284 1
25 284 1
27 284 1
31 284 1
32 284 1
34 284 1
35 284 1
37 284 1
38 284 1
39 284 1
41 284 1
43 284 1
44 284 1
46 284 1
49 284 1
51 284 1
53 284 1
80 284 1
81 284 1
85 284 1
89 284 1
91 284 1
93 284 1
1 285 1
4 285 1
5 285 1
8 285 1
9 285 1
11 285 1
13 285 1
15 285 1
20 285 1
21 285 1
22 285 1
23 285 1
24 285 1
26 285 1
29 285 1
30 285 1
32 285 1
37 285 1
38 285 1
40 285 1
43 285 1
45 285 1
48 285 1
51 285 1
52 285 1
75 285 1
76 285 1
78 285 1
80 285 1
81 285 1
82 285 1
84 285 1
86 285 1
88 285 1
90 285 1
91 285 1
93 285 1
1 286 1
3 286 1
4 286 1
6 286 1
7 286 1
10 286 1
11 286 1
12 286 1
13 286 1
15 286 1
17 286 1
19 286 1
23 286 1
25 286 1
28 286 1
31 286 1
33 286 1
34 286 1
35 286 1
37 286 1
40 286 1
42 286 1
44 286 1
46 286 1
49 286 1
50 286 1
75 286 1
79 286 1
81 286 1
84 286 1
85 286 1
86 286 1
87 286 1
88 286 1
89 286 1
90 286 1
93 286 1
1 287 1
8 287 1
9 287 1
12 287 1
17 287 1
21 287 1
22 287 1
24 287 1
27 287 1
29 287 1
30 287 1
31 287 1
33 287 1
35 287 1
36 287 1
37 287 1
38 287 1
39 287 1
40 287 1
42 287 1
47 287 1
48 287 1
53 287 1
76 287 1
77 287 1
80 287 1
84 287 1
85 287 1
86 287 1
89 287 1
93 287 1
4 288 1
5 288 1
6 288 1
7 288 1
10 288 1
11 288 1
12 288 1
14 288 1
15 288 1
16 288 1
17 288 1
20 288 1
21 288 1
23 288 1
25 288 1
26 288 1
28 288 1
29 288 1
33 288 1
34 288 1
36 288 1
37 288 1
38 288 1
41 288 1
42 288 1
44 288 1
45 288 1
46 288 1
47 288 1
50 288 1
51 288 1
52 288 1
76 288 1
78 288 1
79 288 1
80 288 1
81 288 1
83 288 1
85 288 1
86 288 1
88 288 1
91 288 1
93 288 1
4 289 1
5 289 1
11 289 1
14 289 1
17 289 1
18 289 1
22 289 1
23 289 1
24 289 1
25 289 1
27 289 1
31 289 1
32 289 1
33 289 1
35 289 1
36 289 1
39 289 1
42 289 1
43 289 1
45 289 1
47 289 1
49 289 1
50 289 1
52 289 1
53 289 1
75 289 1
78 289 1
79 289 1
80 289 1
82 289 1
84 289 1
85 289 1
88 289 1
90 289 1
93 289 1
3 290 1
5 290 1
6 290 1
8 290 1
9 290 1
10 290 1
12 290 1
13 290 1
14 290 1
15 290 1
16 290 1
18 290 1
21 290 1
23 290 1
24 290 1
26 290 1
28 290 1
29 290 1
30 290 1
31 290 1
32 290 1
33 290 1
34 290 1
35 290 1
38 290 1
42 290 1
43 290 1
44 290 1
45 290 1
46 290 1
48 290 1
49 290 1
51 290 1
52 290 1
53 290 1
86 290 1
88 290 1
89 290 1
93 290 1
1 291 1
6 291 1
7 291 1
8 291 1
10 291 1
18 291 1
19 291 1
21 291 1
23 291 1
25 291 1
27 291 1
30 291 1
32 291 1
33 291 1
34 291 1
36 291 1
40 291 1
41 291 1
42 291 1
43 291 1
44 291 1
46 291 1
47 291 1
48 291 1
51 291 1
75 291 1
76 291 1
77 291 1
78 291 1
80 291 1
81 291 1
82 291 1
85 291 1
86 291 1
87 291 1
88 291 1
93 291 1
1 292 1
8 292 1
9 292 1
12 292 1
13 292 1
14 292 1
16 292 1
19 292 1
21 292 1
22 292 1
24 292 1
25 292 1
26 292 1
29 292 1
30 292 1
31 292 1
33 292 1
35 292 1
36 292 1
37 292 1
38 292 1
39 292 1
40 292 1
42 292 1
47 292 1
48 292 1
49 292 1
50 292 1
75 292 1
79 292 1
81 292 1
82 292 1
83 292 1
84 292 1
85 292 1
86 292 1
93 292 1
3 293 1
5 293 1
6 293 1
7 293 1
8 293 1
10 293 1
15 293 1
16 293 1
17 293 1
18 293 1
19 293 1
20 293 1
21 293 1
24 293 1
25 293 1
28 293 1
30 293 1
31 293 1
32 293 1
33 293 1
34 293 1
35 293 1
38 293 1
42 293 1
43 293 1
44 293 1
45 293 1
46 293 1
48 293 1
49 293 1
52 293 1
53 293 1
76 293 1
77 293 1
84 293 1
85 293 1
88 293 1
91 293 1
93 293 1
4 294 1
5 294 1
9 294 1
11 294 1
13 294 1
14 294 1
20 294 1
24 294 1
25 294 1
27 294 1
29 294 1
31 294 1
32 294 1
33 294 1
35 294 1
36 294 1
39 294 1
42 294 1
43 294 1
45 294 1
47 294 1
49 294 1
51 294 1
52 294 1
76 294 1
77 294 1
78 294 1
79 294 1
80 294 1
81 294 1
83 294 1
86 294 1
88 294 1
90 294 1
93 294 1
1 295 1
4 295 1
5 295 1
6 295 1
7 295 1
8 295 1
9 295 1
10 295 1
11 295 1
12 295 1
13 295 1
15 295 1
16 295 1
17 295 1
18 295 1
19 295 1
20 295 1
23 295 1
24 295 1
26 295 1
29 295 1
30 295 1
31 295 1
34 295 1
35 295 1
39 295 1
40 295 1
41 295 1
44 295 1
45 295 1
46 295 1
48 295 1
52 295 1
75 295 1
78 295 1
79 295 1
80 295 1
82 295 1
83 295 1
84 295 1
85 295 1
87 295 1
88 295 1
89 295 1
92 295 1
93 295 1
3 296 1
5 296 1
7 296 1
8 296 1
10 296 1
15 296 1
16 296 1
18 296 1
19 296 1
21 296 1
23 296 1
24 296 1
25 296 1
28 296 1
29 296 1
30 296 1
31 296 1
32 296 1
33 296 1
34 296 1
35 296 1
38 296 1
42 296 1
43 296 1
44 296 1
45 296 1
46 296 1
48 296 1
50 296 1
52 296 1
53 296 1
76 296 1
78 296 1
81 296 1
82 296 1
84 296 1
86 296 1
87 296 1
88 296 1
89 296 1
90 296 1
91 296 1
92 296 1
93 296 1
3 297 1
4 297 1
8 297 1
11 297 1
13 297 1
14 297 1
16 297 1
18 297 1
23 297 1
27 297 1
28 297 1
30 297 1
31 297 1
32 297 1
35 297 1
36 297 1
37 297 1
41 297 1
43 297 1
47 297 1
48 297 1
50 297 1
51 297 1
76 297 1
77 297 1
79 297 1
82 297 1
85 297 1
88 297 1
91 297 1
92 297 1
93 297 1
1 298 1
3 298 1
5 298 1
6 298 1
9 298 1
10 298 1
13 298 1
22 298 1
24 298 1
25 298 1
26 298 1
27 298 1
28 298 1
32 298 1
34 298 1
36 298 1
37 298 1
39 298 1
40 298 1
43 298 1
44 298 1
45 298 1
46 298 1
47 298 1
49 298 1
50 298 1
52 298 1
75 298 1
77 298 1
79 298 1
81 298 1
83 298 1
84 298 1
87 298 1
89 298 1
91 298 1
92 298 1
93 298 1
1 299 1
3 299 1
4 299 1
6 299 1
7 299 1
9 299 1
10 299 1
11 299 1
12 299 1
13 299 1
15 299 1
17 299 1
18 299 1
20 299 1
25 299 1
26 299 1
27 299 1
29 299 1
31 299 1
33 299 1
34 299 1
35 299 1
37 299 1
40 299 1
42 299 1
44 299 1
46 299 1
77 299 1
78 299 1
80 299 1
81 299 1
82 299 1
83 299 1
86 299 1
88 299 1
89 299 1
92 299 1
93 299 1
1 300 1
7 300 1
8 300 1
12 300 1
15 300 1
16 300 1
18 300 1
19 300 1
20 300 1
21 300 1
22 300 1
25 300 1
26 300 1
28 300 1
29 300 1
30 300 1
31 300 1
33 300 1
35 300 1
36 300 1
37 300 1
38 300 1
39 300 1
40 300 1
42 300 1
47 300 1
48 300 1
50 300 1
53 300 1
76 300 1
83 300 1
85 300 1
86 300 1
89 300 1
90 300 1
91 300 1
92 300 1
93 300 1
1 301 1
3 301 1
4 301 1
10 301 1
11 301 1
14 301 1
16 301 1
18 301 1
20 301 1
21 301 1
22 301 1
23 301 1
27 301 1
29 301 1
31 301 1
33 301 1
34 301 1
35 301 1
37 301 1
40 301 1
42 301 1
44 301 1
46 301 1
50 301 1
51 301 1
77 301 1
79 301 1
80 301 1
84 301 1
85 301 1
86 301 1
87 301 1
92 301 1
93 301 1
3 302 1
4 302 1
6 302 1
8 302 1
10 302 1
11 302 1
13 302 1
14 302 1
21 302 1
22 302 1
24 302 1
26 302 1
30 302 1
34 302 1
36 302 1
38 302 1
39 302 1
44 302 1
46 302 1
47 302 1
48 302 1
49 302 1
50 302 1
75 302 1
80 302 1
81 302 1
82 302 1
83 302 1
84 302 1
85 302 1
87 302 1
88 302 1
89 302 1
90 302 1
92 302 1
93 302 1
6 303 1
9 303 1
12 303 1
13 303 1
15 303 1
17 303 1
20 303 1
24 303 1
29 303 1
78 303 1
82 303 1
86 303 1
87 303 1
88 303 1
90 303 1
91 303 1
92 303 1
93 303 1
3 304 1
5 304 1
6 304 1
7 304 1
8 304 1
10 304 1
12 304 1
15 304 1
16 304 1
17 304 1
18 304 1
19 304 1
20 304 1
21 304 1
24 304 1
25 304 1
28 304 1
30 304 1
31 304 1
32 304 1
33 304 1
34 304 1
35 304 1
38 304 1
42 304 1
43 304 1
44 304 1
45 304 1
46 304 1
48 304 1
49 304 1
50 304 1
52 304 1
53 304 1
76 304 1
77 304 1
84 304 1
85 304 1
88 304 1
91 304 1
92 304 1
93 304 1
3 305 1
4 305 1
8 305 1
9 305 1
10 305 1
11 305 1
14 305 1
15 305 1
16 305 1
18 305 1
19 305 1
20 305 1
21 305 1
23 305 1
27 305 1
28 305 1
30 305 1
34 305 1
36 305 1
38 305 1
39 305 1
44 305 1
46 305 1
47 305 1
48 305 1
49 305 1
51 305 1
77 305 1
79 305 1
80 305 1
82 305 1
83 305 1
84 305 1
87 305 1
89 305 1
91 305 1
92 305 1
93 305 1
6 306 1
7 306 1
9 306 1
10 306 1
13 306 1
14 306 1
16 306 1
21 306 1
22 306 1
23 306 1
24 306 1
26 306 1
27 306 1
28 306 1
31 306 1
32 306 1
34 306 1
35 306 1
37 306 1
38 306 1
39 306 1
41 306 1
43 306 1
44 306 1
46 306 1
53 306 1
75 306 1
81 306 1
82 306 1
83 306 1
84 306 1
86 306 1
88 306 1
89 306 1
92 306 1
93 306 1
3 307 1
5 307 1
7 307 1
8 307 1
9 307 1
10 307 1
13 307 1
15 307 1
17 307 1
24 307 1
26 307 1
27 307 1
29 307 1
30 307 1
31 307 1
32 307 1
33 307 1
34 307 1
35 307 1
38 307 1
42 307 1
43 307 1
44 307 1
45 307 1
46 307 1
48 307 1
50 307 1
51 307 1
52 307 1
53 307 1
77 307 1
78 307 1
82 307 1
85 307 1
86 307 1
89 307 1
90 307 1
91 307 1
92 307 1
93 307 1
3 308 1
4 308 1
7 308 1
8 308 1
10 308 1
11 308 1
12 308 1
13 308 1
16 308 1
17 308 1
18 308 1
19 308 1
20 308 1
24 308 1
25 308 1
26 308 1
28 308 1
29 308 1
30 308 1
34 308 1
36 308 1
38 308 1
39 308 1
44 308 1
46 308 1
47 308 1
48 308 1
50 308 1
51 308 1
75 308 1
76 308 1
77 308 1
83 308 1
84 308 1
85 308 1
87 308 1
92 308 1
93 308 1
1 309 1
4 309 1
5 309 1
8 309 1
11 309 1
18 309 1
19 309 1
20 309 1
21 309 1
23 309 1
25 309 1
27 309 1
28 309 1
29 309 1
30 309 1
32 309 1
37 309 1
38 309 1
40 309 1
43 309 1
45 309 1
48 309 1
49 309 1
50 309 1
52 309 1
75 309 1
77 309 1
78 309 1
79 309 1
80 309 1
82 309 1
83 309 1
84 309 1
86 309 1
87 309 1
88 309 1
89 309 1
90 309 1
92 309 1
93 309 1
3 310 1
4 310 1
6 310 1
8 310 1
10 310 1
11 310 1
12 310 1
13 310 1
14 310 1
18 310 1
21 310 1
22 310 1
23 310 1
26 310 1
27 310 1
28 310 1
30 310 1
34 310 1
36 310 1
38 310 1
39 310 1
44 310 1
46 310 1
47 310 1
48 310 1
76 310 1
78 310 1
81 310 1
82 310 1
83 310 1
84 310 1
85 310 1
86 310 1
88 310 1
90 310 1
91 310 1
92 310 1
93 310 1
3 311 1
5 311 1
6 311 1
8 311 1
9 311 1
10 311 1
12 311 1
15 311 1
22 311 1
24 311 1
26 311 1
27 311 1
29 311 1
30 311 1
31 311 1
32 311 1
33 311 1
34 311 1
35 311 1
38 311 1
42 311 1
43 311 1
44 311 1
45 311 1
46 311 1
48 311 1
49 311 1
50 311 1
52 311 1
53 311 1
76 311 1
77 311 1
79 311 1
82 311 1
85 311 1
86 311 1
87 311 1
91 311 1
92 311 1
93 311 1
4 312 1
5 312 1
6 312 1
7 312 1
10 312 1
11 312 1
12 312 1
14 312 1
15 312 1
16 312 1
17 312 1
18 312 1
20 312 1
24 312 1
25 312 1
26 312 1
29 312 1
33 312 1
34 312 1
36 312 1
37 312 1
38 312 1
41 312 1
42 312 1
44 312 1
45 312 1
46 312 1
47 312 1
49 312 1
51 312 1
52 312 1
77 312 1
79 312 1
81 312 1
83 312 1
84 312 1
85 312 1
87 312 1
88 312 1
89 312 1
92 312 1
93 312 1
4 313 1
5 313 1
11 313 1
14 313 1
15 313 1
16 313 1
19 313 1
20 313 1
21 313 1
25 313 1
28 313 1
29 313 1
31 313 1
32 313 1
33 313 1
35 313 1
36 313 1
39 313 1
42 313 1
43 313 1
45 313 1
47 313 1
52 313 1
53 313 1
75 313 1
77 313 1
80 313 1
81 313 1
82 313 1
83 313 1
86 313 1
87 313 1
88 313 1
89 313 1
90 313 1
91 313 1
92 313 1
93 313 1
4 314 1
5 314 1
6 314 1
11 314 1
13 314 1
14 314 1
16 314 1
17 314 1
20 314 1
21 314 1
22 314 1
23 314 1
27 314 1
28 314 1
31 314 1
32 314 1
33 314 1
35 314 1
36 314 1
39 314 1
42 314 1
43 314 1
45 314 1
47 314 1
50 314 1
51 314 1
52 314 1
53 314 1
78 314 1
83 314 1
85 314 1
86 314 1
88 314 1
91 314 1
92 314 1
93 314 1
1 315 1
4 315 1
5 315 1
6 315 1
8 315 1
9 315 1
11 315 1
13 315 1
15 315 1
17 315 1
19 315 1
21 315 1
22 315 1
24 315 1
26 315 1
27 315 1
30 315 1
32 315 1
37 315 1
38 315 1
40 315 1
43 315 1
45 315 1
48 315 1
49 315 1
50 315 1
51 315 1
52 315 1
75 315 1
76 315 1
77 315 1
80 315 1
84 315 1
85 315 1
86 315 1
87 315 1
89 315 1
91 315 1
92 315 1
93 315 1
55 316 1
56 317 1
57 318 1
54 319 1
61 320 1
62 321 1
64 322 1
58 323 1
59 324 1
60 325 1
63 326 1
67 327 1
65 328 1
68 329 1
66 330 1
72 331 1
70 332 1
69 333 1
73 334 1
71 335 1
74 336 1
1 337 1
8 337 1
30 337 1
31 337 1
33 337 1
35 337 1
36 337 1
37 337 1
38 337 1
39 337 1
40 337 1
42 337 1
47 337 1
48 337 1
54 337 1
55 337 1
58 337 1
59 337 1
61 337 1
62 337 1
64 337 1
67 337 1
70 337 1
71 337 1
72 337 1
74 337 1
94 337 1
1 338 1
3 338 1
5 338 1
10 338 1
32 338 1
34 338 1
36 338 1
37 338 1
39 338 1
40 338 1
43 338 1
44 338 1
45 338 1
46 338 1
47 338 1
52 338 1
54 338 1
56 338 1
59 338 1
60 338 1
62 338 1
63 338 1
64 338 1
66 338 1
68 338 1
71 338 1
73 338 1
74 338 1
94 338 1
1 339 1
3 339 1
5 339 1
10 339 1
32 339 1
34 339 1
36 339 1
37 339 1
39 339 1
40 339 1
43 339 1
44 339 1
45 339 1
46 339 1
47 339 1
52 339 1
54 339 1
57 339 1
60 339 1
64 339 1
65 339 1
67 339 1
68 339 1
69 339 1
70 339 1
72 339 1
73 339 1
74 339 1
94 339 1
94 340 1
1 341 1
3 341 1
5 341 1
10 341 1
32 341 1
34 341 1
36 341 1
37 341 1
39 341 1
40 341 1
43 341 1
44 341 1
45 341 1
46 341 1
47 341 1
52 341 1
56 341 1
59 341 1
61 341 1
62 341 1
66 341 1
67 341 1
68 341 1
69 341 1
71 341 1
72 341 1
73 341 1
74 341 1
95 341 1
95 342 1
1 343 1
3 343 1
4 343 1
10 343 1
11 343 1
31 343 1
33 343 1
34 343 1
35 343 1
37 343 1
40 343 1
42 343 1
44 343 1
46 343 1
54 343 1
56 343 1
57 343 1
58 343 1
59 343 1
60 343 1
63 343 1
64 343 1
66 343 1
67 343 1
71 343 1
73 343 1
94 343 1
1 344 1
3 344 1
5 344 1
10 344 1
32 344 1
34 344 1
36 344 1
37 344 1
39 344 1
40 344 1
43 344 1
44 344 1
45 344 1
46 344 1
47 344 1
52 344 1
55 344 1
57 344 1
59 344 1
60 344 1
66 344 1
67 344 1
68 344 1
69 344 1
70 344 1
72 344 1
73 344 1
74 344 1
94 344 1
4 345 1
5 345 1
11 345 1
31 345 1
32 345 1
33 345 1
35 345 1
36 345 1
39 345 1
42 345 1
43 345 1
45 345 1
47 345 1
52 345 1
54 345 1
55 345 1
59 345 1
60 345 1
61 345 1
62 345 1
63 345 1
65 345 1
67 345 1
68 345 1
70 345 1
74 345 1
95 345 1
3 346 1
4 346 1
8 346 1
11 346 1
30 346 1
31 346 1
32 346 1
35 346 1
36 346 1
37 346 1
41 346 1
43 346 1
47 346 1
48 346 1
56 346 1
57 346 1
61 346 1
63 346 1
67 346 1
68 346 1
69 346 1
70 346 1
71 346 1
72 346 1
73 346 1
74 346 1
95 346 1
3 347 1
5 347 1
8 347 1
10 347 1
30 347 1
31 347 1
32 347 1
33 347 1
34 347 1
35 347 1
38 347 1
42 347 1
43 347 1
44 347 1
45 347 1
46 347 1
48 347 1
52 347 1
54 347 1
60 347 1
64 347 1
67 347 1
69 347 1
72 347 1
95 347 1
1 348 1
3 348 1
5 348 1
31 348 1
35 348 1
36 348 1
38 348 1
40 348 1
41 348 1
45 348 1
47 348 1
52 348 1
55 348 1
57 348 1
58 348 1
60 348 1
61 348 1
62 348 1
63 348 1
64 348 1
66 348 1
71 348 1
72 348 1
74 348 1
95 348 1
1 349 1
8 349 1
30 349 1
31 349 1
33 349 1
35 349 1
36 349 1
37 349 1
38 349 1
39 349 1
40 349 1
42 349 1
47 349 1
48 349 1
55 349 1
57 349 1
60 349 1
62 349 1
66 349 1
70 349 1
71 349 1
72 349 1
73 349 1
74 349 1
94 349 1
1 350 1
4 350 1
5 350 1
8 350 1
11 350 1
30 350 1
32 350 1
37 350 1
38 350 1
40 350 1
43 350 1
45 350 1
48 350 1
52 350 1
56 350 1
58 350 1
61 350 1
64 350 1
65 350 1
66 350 1
68 350 1
72 350 1
73 350 1
74 350 1
94 350 1
4 351 1
5 351 1
11 351 1
31 351 1
32 351 1
33 351 1
35 351 1
36 351 1
39 351 1
42 351 1
43 351 1
45 351 1
47 351 1
52 351 1
54 351 1
57 351 1
59 351 1
61 351 1
62 351 1
63 351 1
65 351 1
69 351 1
72 351 1
73 351 1
94 351 1
55 352 1
58 352 1
60 352 1
62 352 1
63 352 1
64 352 1
65 352 1
66 352 1
67 352 1
69 352 1
94 352 1
1 353 1
3 353 1
5 353 1
10 353 1
32 353 1
34 353 1
36 353 1
37 353 1
39 353 1
40 353 1
43 353 1
44 353 1
45 353 1
46 353 1
47 353 1
52 353 1
54 353 1
55 353 1
56 353 1
59 353 1
61 353 1
64 353 1
66 353 1
67 353 1
69 353 1
70 353 1
71 353 1
72 353 1
94 353 1
4 354 1
5 354 1
10 354 1
11 354 1
33 354 1
34 354 1
36 354 1
37 354 1
38 354 1
41 354 1
42 354 1
44 354 1
45 354 1
46 354 1
47 354 1
52 354 1
54 354 1
55 354 1
56 354 1
57 354 1
60 354 1
62 354 1
63 354 1
66 354 1
68 354 1
71 354 1
72 354 1
74 354 1
94 354 1
1 355 1
4 355 1
5 355 1
8 355 1
11 355 1
30 355 1
32 355 1
37 355 1
38 355 1
40 355 1
43 355 1
45 355 1
48 355 1
52 355 1
54 355 1
55 355 1
57 355 1
59 355 1
62 355 1
63 355 1
64 355 1
68 355 1
69 355 1
70 355 1
71 355 1
73 355 1
95 355 1
1 356 1
3 356 1
4 356 1
10 356 1
11 356 1
31 356 1
33 356 1
34 356 1
35 356 1
37 356 1
40 356 1
42 356 1
44 356 1
46 356 1
54 356 1
55 356 1
56 356 1
57 356 1
58 356 1
61 356 1
62 356 1
65 356 1
67 356 1
69 356 1
70 356 1
72 356 1
95 356 1
4 357 1
5 357 1
11 357 1
31 357 1
32 357 1
33 357 1
35 357 1
36 357 1
39 357 1
42 357 1
43 357 1
45 357 1
47 357 1
52 357 1
58 357 1
60 357 1
61 357 1
62 357 1
63 357 1
65 357 1
66 357 1
67 357 1
68 357 1
69 357 1
70 357 1
71 357 1
94 357 1
3 358 1
5 358 1
8 358 1
10 358 1
30 358 1
31 358 1
32 358 1
33 358 1
34 358 1
35 358 1
38 358 1
42 358 1
43 358 1
44 358 1
45 358 1
46 358 1
48 358 1
52 358 1
55 358 1
56 358 1
57 358 1
58 358 1
61 358 1
64 358 1
65 358 1
66 358 1
67 358 1
68 358 1
69 358 1
70 358 1
73 358 1
74 358 1
98 358 1
98 359 1
4 360 1
5 360 1
10 360 1
11 360 1
33 360 1
34 360 1
36 360 1
37 360 1
38 360 1
41 360 1
42 360 1
44 360 1
45 360 1
46 360 1
47 360 1
52 360 1
57 360 1
63 360 1
66 360 1
67 360 1
68 360 1
69 360 1
70 360 1
71 360 1
73 360 1
74 360 1
94 360 1
95 360 1
98 360 1
54 361 1
56 361 1
59 361 1
60 361 1
61 361 1
63 361 1
64 361 1
67 361 1
69 361 1
72 361 1
94 361 1
95 361 1
98 361 1
3 362 1
4 362 1
8 362 1
10 362 1
11 362 1
30 362 1
34 362 1
36 362 1
38 362 1
39 362 1
44 362 1
46 362 1
47 362 1
48 362 1
54 362 1
57 362 1
63 362 1
64 362 1
65 362 1
66 362 1
71 362 1
72 362 1
98 362 1
1 363 1
3 363 1
4 363 1
10 363 1
11 363 1
31 363 1
33 363 1
34 363 1
35 363 1
37 363 1
40 363 1
42 363 1
44 363 1
46 363 1
54 363 1
57 363 1
58 363 1
61 363 1
63 363 1
66 363 1
69 363 1
71 363 1
72 363 1
73 363 1
94 363 1
95 363 1
98 363 1
3 364 1
4 364 1
8 364 1
10 364 1
11 364 1
30 364 1
34 364 1
36 364 1
38 364 1
39 364 1
44 364 1
46 364 1
47 364 1
48 364 1
54 364 1
55 364 1
56 364 1
60 364 1
62 364 1
63 364 1
64 364 1
65 364 1
66 364 1
67 364 1
70 364 1
72 364 1
94 364 1
95 364 1
98 364 1
1 365 1
3 365 1
5 365 1
10 365 1
32 365 1
34 365 1
36 365 1
37 365 1
39 365 1
40 365 1
43 365 1
44 365 1
45 365 1
46 365 1
47 365 1
52 365 1
55 365 1
57 365 1
58 365 1
59 365 1
60 365 1
66 365 1
67 365 1
68 365 1
69 365 1
70 365 1
71 365 1
72 365 1
73 365 1
74 365 1
94 365 1
95 365 1
98 365 1
1 366 1
3 366 1
4 366 1
11 366 1
32 366 1
33 366 1
38 366 1
39 366 1
40 366 1
41 366 1
42 366 1
43 366 1
55 366 1
56 366 1
58 366 1
59 366 1
61 366 1
62 366 1
63 366 1
64 366 1
65 366 1
67 366 1
69 366 1
74 366 1
98 366 1
3 367 1
4 367 1
8 367 1
11 367 1
30 367 1
31 367 1
32 367 1
35 367 1
36 367 1
37 367 1
41 367 1
43 367 1
47 367 1
48 367 1
54 367 1
60 367 1
64 367 1
66 367 1
67 367 1
69 367 1
71 367 1
72 367 1
98 367 1
54 368 1
55 368 1
56 368 1
57 368 1
59 368 1
61 368 1
62 368 1
63 368 1
66 368 1
68 368 1
69 368 1
70 368 1
71 368 1
74 368 1
98 368 1
3 369 1
5 369 1
8 369 1
10 369 1
30 369 1
31 369 1
32 369 1
33 369 1
34 369 1
35 369 1
38 369 1
42 369 1
43 369 1
44 369 1
45 369 1
46 369 1
48 369 1
52 369 1
54 369 1
55 369 1
56 369 1
60 369 1
61 369 1
62 369 1
63 369 1
64 369 1
68 369 1
70 369 1
71 369 1
72 369 1
94 369 1
95 369 1
98 369 1
1 370 1
4 370 1
5 370 1
8 370 1
11 370 1
30 370 1
32 370 1
37 370 1
38 370 1
40 370 1
43 370 1
45 370 1
48 370 1
52 370 1
54 370 1
56 370 1
57 370 1
60 370 1
63 370 1
69 370 1
71 370 1
72 370 1
73 370 1
74 370 1
98 370 1
1 371 1
4 371 1
5 371 1
8 371 1
10 371 1
11 371 1
30 371 1
31 371 1
34 371 1
35 371 1
39 371 1
40 371 1
41 371 1
44 371 1
45 371 1
46 371 1
48 371 1
52 371 1
56 371 1
58 371 1
59 371 1
61 371 1
62 371 1
63 371 1
65 371 1
66 371 1
67 371 1
68 371 1
69 371 1
70 371 1
72 371 1
74 371 1
98 371 1
4 372 1
5 372 1
11 372 1
31 372 1
32 372 1
33 372 1
35 372 1
36 372 1
39 372 1
42 372 1
43 372 1
45 372 1
47 372 1
52 372 1
54 372 1
56 372 1
58 372 1
60 372 1
64 372 1
67 372 1
70 372 1
71 372 1
98 372 1
1 373 1
3 373 1
5 373 1
31 373 1
35 373 1
36 373 1
38 373 1
40 373 1
41 373 1
45 373 1
47 373 1
52 373 1
54 373 1
55 373 1
56 373 1
61 373 1
62 373 1
63 373 1
66 373 1
68 373 1
71 373 1
72 373 1
73 373 1
74 373 1
98 373 1
1 374 1
3 374 1
4 374 1
10 374 1
11 374 1
31 374 1
33 374 1
34 374 1
35 374 1
37 374 1
40 374 1
42 374 1
44 374 1
46 374 1
54 374 1
58 374 1
59 374 1
61 374 1
64 374 1
65 374 1
67 374 1
68 374 1
69 374 1
70 374 1
73 374 1
74 374 1
98 374 1
3 375 1
4 375 1
8 375 1
11 375 1
30 375 1
31 375 1
32 375 1
35 375 1
36 375 1
37 375 1
41 375 1
43 375 1
47 375 1
48 375 1
55 375 1
57 375 1
58 375 1
59 375 1
60 375 1
61 375 1
62 375 1
63 375 1
65 375 1
67 375 1
70 375 1
74 375 1
94 375 1
95 375 1
98 375 1
1 376 1
3 376 1
5 376 1
10 376 1
32 376 1
34 376 1
36 376 1
37 376 1
39 376 1
40 376 1
43 376 1
44 376 1
45 376 1
46 376 1
47 376 1
52 376 1
54 376 1
61 376 1
62 376 1
66 376 1
67 376 1
68 376 1
69 376 1
71 376 1
73 376 1
74 376 1
94 376 1
95 376 1
98 376 1
3 377 1
4 377 1
8 377 1
10 377 1
11 377 1
30 377 1
34 377 1
36 377 1
38 377 1
39 377 1
44 377 1
46 377 1
47 377 1
48 377 1
56 377 1
59 377 1
60 377 1
62 377 1
63 377 1
72 377 1
94 377 1
95 377 1
98 377 1
1 378 1
3 378 1
4 378 1
10 378 1
11 378 1
31 378 1
33 378 1
34 378 1
35 378 1
37 378 1
40 378 1
42 378 1
44 378 1
46 378 1
54 378 1
57 378 1
58 378 1
61 378 1
62 378 1
63 378 1
66 378 1
71 378 1
72 378 1
73 378 1
98 378 1
4 379 1
5 379 1
10 379 1
11 379 1
33 379 1
34 379 1
36 379 1
37 379 1
38 379 1
41 379 1
42 379 1
44 379 1
45 379 1
46 379 1
47 379 1
52 379 1
57 379 1
58 379 1
63 379 1
66 379 1
67 379 1
68 379 1
69 379 1
70 379 1
71 379 1
73 379 1
74 379 1
95 379 1
98 379 1
1 380 1
3 380 1
5 380 1
10 380 1
32 380 1
34 380 1
36 380 1
37 380 1
39 380 1
40 380 1
43 380 1
44 380 1
45 380 1
46 380 1
47 380 1
52 380 1
54 380 1
59 380 1
60 380 1
62 380 1
63 380 1
64 380 1
66 380 1
68 380 1
71 380 1
73 380 1
74 380 1
94 380 1
98 380 1
1 381 1
3 381 1
4 381 1
11 381 1
32 381 1
33 381 1
38 381 1
39 381 1
40 381 1
41 381 1
42 381 1
43 381 1
54 381 1
57 381 1
60 381 1
63 381 1
64 381 1
65 381 1
66 381 1
71 381 1
72 381 1
95 381 1
98 381 1
56 382 1
59 382 1
60 382 1
61 382 1
63 382 1
64 382 1
67 382 1
69 382 1
72 382 1
95 382 1
98 382 1
1 383 1
4 383 1
5 383 1
8 383 1
11 383 1
30 383 1
32 383 1
37 383 1
38 383 1
40 383 1
43 383 1
45 383 1
48 383 1
52 383 1
54 383 1
56 383 1
57 383 1
59 383 1
62 383 1
63 383 1
64 383 1
65 383 1
67 383 1
68 383 1
69 383 1
73 383 1
74 383 1
95 383 1
98 383 1
1 384 1
3 384 1
4 384 1
10 384 1
11 384 1
31 384 1
33 384 1
34 384 1
35 384 1
37 384 1
40 384 1
42 384 1
44 384 1
46 384 1
54 384 1
57 384 1
58 384 1
61 384 1
62 384 1
63 384 1
66 384 1
69 384 1
71 384 1
72 384 1
73 384 1
94 384 1
98 384 1
1 385 1
8 385 1
30 385 1
31 385 1
33 385 1
35 385 1
36 385 1
37 385 1
38 385 1
39 385 1
40 385 1
42 385 1
47 385 1
48 385 1
55 385 1
57 385 1
58 385 1
59 385 1
62 385 1
64 385 1
65 385 1
70 385 1
71 385 1
72 385 1
73 385 1
95 385 1
98 385 1
71 386 1
95 386 1
98 386 1
1 387 1
3 387 1
5 387 1
31 387 1
35 387 1
36 387 1
38 387 1
40 387 1
41 387 1
45 387 1
47 387 1
52 387 1
54 387 1
56 387 1
58 387 1
59 387 1
60 387 1
64 387 1
68 387 1
69 387 1
70 387 1
95 387 1
98 387 1
1 388 1
3 388 1
5 388 1
10 388 1
32 388 1
34 388 1
36 388 1
37 388 1
39 388 1
40 388 1
43 388 1
44 388 1
45 388 1
46 388 1
47 388 1
52 388 1
54 388 1
56 388 1
57 388 1
61 388 1
63 388 1
64 388 1
66 388 1
68 388 1
70 388 1
73 388 1
74 388 1
95 388 1
98 388 1
3 389 1
5 389 1
8 389 1
10 389 1
30 389 1
31 389 1
32 389 1
33 389 1
34 389 1
35 389 1
38 389 1
42 389 1
43 389 1
44 389 1
45 389 1
46 389 1
48 389 1
52 389 1
55 389 1
56 389 1
57 389 1
59 389 1
60 389 1
61 389 1
62 389 1
64 389 1
66 389 1
67 389 1
68 389 1
70 389 1
71 389 1
72 389 1
74 389 1
95 389 1
98 389 1
1 390 1
8 390 1
10 390 1
30 390 1
32 390 1
33 390 1
34 390 1
36 390 1
40 390 1
41 390 1
42 390 1
43 390 1
44 390 1
46 390 1
47 390 1
48 390 1
54 390 1
56 390 1
57 390 1
58 390 1
66 390 1
67 390 1
68 390 1
70 390 1
74 390 1
94 390 1
98 390 1
4 391 1
5 391 1
11 391 1
31 391 1
32 391 1
33 391 1
35 391 1
36 391 1
39 391 1
42 391 1
43 391 1
45 391 1
47 391 1
52 391 1
54 391 1
55 391 1
56 391 1
62 391 1
63 391 1
65 391 1
66 391 1
69 391 1
70 391 1
94 391 1
98 391 1
10 392 1
31 392 1
32 392 1
34 392 1
35 392 1
37 392 1
38 392 1
39 392 1
41 392 1
43 392 1
44 392 1
46 392 1
59 392 1
62 392 1
63 392 1
64 392 1
67 392 1
68 392 1
69 392 1
70 392 1
73 392 1
94 392 1
98 392 1
3 393 1
4 393 1
8 393 1
11 393 1
30 393 1
31 393 1
32 393 1
35 393 1
36 393 1
37 393 1
41 393 1
43 393 1
47 393 1
48 393 1
56 393 1
57 393 1
58 393 1
59 393 1
60 393 1
61 393 1
62 393 1
63 393 1
64 393 1
65 393 1
66 393 1
67 393 1
69 393 1
70 393 1
71 393 1
72 393 1
73 393 1
94 393 1
98 393 1
1 394 1
3 394 1
5 394 1
31 394 1
35 394 1
36 394 1
38 394 1
40 394 1
41 394 1
45 394 1
47 394 1
52 394 1
54 394 1
56 394 1
58 394 1
60 394 1
61 394 1
64 394 1
65 394 1
67 394 1
68 394 1
69 394 1
71 394 1
73 394 1
74 394 1
94 394 1
98 394 1
4 395 1
5 395 1
11 395 1
31 395 1
32 395 1
33 395 1
35 395 1
36 395 1
39 395 1
42 395 1
43 395 1
45 395 1
47 395 1
52 395 1
55 395 1
56 395 1
58 395 1
65 395 1
66 395 1
68 395 1
70 395 1
71 395 1
72 395 1
73 395 1
74 395 1
94 395 1
98 395 1
3 396 1
5 396 1
8 396 1
10 396 1
30 396 1
31 396 1
32 396 1
33 396 1
34 396 1
35 396 1
38 396 1
42 396 1
43 396 1
44 396 1
45 396 1
46 396 1
48 396 1
52 396 1
54 396 1
56 396 1
58 396 1
59 396 1
61 396 1
65 396 1
66 396 1
67 396 1
68 396 1
69 396 1
70 396 1
71 396 1
72 396 1
95 396 1
98 396 1
3 397 1
4 397 1
8 397 1
10 397 1
11 397 1
30 397 1
34 397 1
36 397 1
38 397 1
39 397 1
44 397 1
46 397 1
47 397 1
48 397 1
55 397 1
57 397 1
59 397 1
61 397 1
63 397 1
64 397 1
66 397 1
67 397 1
70 397 1
73 397 1
74 397 1
94 397 1
98 397 1
1 398 1
8 398 1
30 398 1
31 398 1
33 398 1
35 398 1
36 398 1
37 398 1
38 398 1
39 398 1
40 398 1
42 398 1
47 398 1
48 398 1
54 398 1
55 398 1
57 398 1
58 398 1
59 398 1
60 398 1
61 398 1
63 398 1
65 398 1
67 398 1
69 398 1
70 398 1
71 398 1
94 398 1
98 398 1
1 399 1
3 399 1
5 399 1
10 399 1
32 399 1
34 399 1
36 399 1
37 399 1
39 399 1
40 399 1
43 399 1
44 399 1
45 399 1
46 399 1
47 399 1
52 399 1
54 399 1
57 399 1
60 399 1
65 399 1
67 399 1
68 399 1
69 399 1
70 399 1
72 399 1
73 399 1
74 399 1
94 399 1
98 399 1
3 400 1
5 400 1
8 400 1
10 400 1
30 400 1
31 400 1
32 400 1
33 400 1
34 400 1
35 400 1
38 400 1
42 400 1
43 400 1
44 400 1
45 400 1
46 400 1
48 400 1
52 400 1
54 400 1
55 400 1
56 400 1
58 400 1
59 400 1
62 400 1
63 400 1
65 400 1
67 400 1
70 400 1
72 400 1
74 400 1
94 400 1
95 400 1
96 421 1
1 422 1
3 422 1
5 422 1
31 422 1
35 422 1
36 422 1
38 422 1
40 422 1
41 422 1
45 422 1
47 422 1
52 422 1
99 422 1
99 423 1
97 424 1
1 425 1
8 425 1
30 425 1
31 425 1
33 425 1
35 425 1
36 425 1
37 425 1
38 425 1
39 425 1
40 425 1
42 425 1
47 425 1
48 425 1
96 425 1
97 425 1
99 425 1
4 426 1
5 426 1
11 426 1
31 426 1
32 426 1
33 426 1
35 426 1
36 426 1
39 426 1
42 426 1
43 426 1
45 426 1
47 426 1
52 426 1
99 426 1
1 427 1
8 427 1
30 427 1
31 427 1
33 427 1
35 427 1
36 427 1
37 427 1
38 427 1
39 427 1
40 427 1
42 427 1
47 427 1
48 427 1
96 427 1
1 428 1
3 428 1
4 428 1
11 428 1
32 428 1
33 428 1
38 428 1
39 428 1
40 428 1
41 428 1
42 428 1
43 428 1
96 428 1
97 428 1
99 428 1
3 429 1
4 429 1
8 429 1
11 429 1
30 429 1
31 429 1
32 429 1
35 429 1
36 429 1
37 429 1
41 429 1
43 429 1
47 429 1
48 429 1
97 429 1
3 430 1
4 430 1
8 430 1
10 430 1
11 430 1
30 430 1
34 430 1
36 430 1
38 430 1
39 430 1
44 430 1
46 430 1
47 430 1
48 430 1
99 430 1
1 431 1
3 431 1
5 431 1
31 431 1
35 431 1
36 431 1
38 431 1
40 431 1
41 431 1
45 431 1
47 431 1
52 431 1
96 431 1
99 432 1
1 433 1
4 433 1
5 433 1
8 433 1
11 433 1
30 433 1
32 433 1
37 433 1
38 433 1
40 433 1
43 433 1
45 433 1
48 433 1
52 433 1
96 433 1
97 433 1
99 433 1
1 434 1
3 434 1
4 434 1
10 434 1
11 434 1
31 434 1
33 434 1
34 434 1
35 434 1
37 434 1
40 434 1
42 434 1
44 434 1
46 434 1
97 434 1
1 435 1
4 435 1
5 435 1
8 435 1
11 435 1
30 435 1
32 435 1
37 435 1
38 435 1
40 435 1
43 435 1
45 435 1
48 435 1
52 435 1
97 435 1
3 436 1
4 436 1
8 436 1
10 436 1
11 436 1
30 436 1
34 436 1
36 436 1
38 436 1
39 436 1
44 436 1
46 436 1
47 436 1
48 436 1
96 436 1
97 436 1
99 436 1
3 437 1
4 437 1
8 437 1
11 437 1
30 437 1
31 437 1
32 437 1
35 437 1
36 437 1
37 437 1
41 437 1
43 437 1
47 437 1
48 437 1
97 437 1
1 438 1
3 438 1
4 438 1
11 438 1
32 438 1
33 438 1
38 438 1
39 438 1
40 438 1
41 438 1
42 438 1
43 438 1
97 438 1
4 439 1
5 439 1
11 439 1
31 439 1
32 439 1
33 439 1
35 439 1
36 439 1
39 439 1
42 439 1
43 439 1
45 439 1
47 439 1
52 439 1
96 439 1
97 439 1
99 439 1
3 440 1
5 440 1
8 440 1
10 440 1
30 440 1
31 440 1
32 440 1
33 440 1
34 440 1
35 440 1
38 440 1
42 440 1
43 440 1
44 440 1
45 440 1
46 440 1
48 440 1
52 440 1
99 440 1
1 441 1
4 441 1
5 441 1
8 441 1
11 441 1
30 441 1
32 441 1
37 441 1
38 441 1
40 441 1
43 441 1
45 441 1
48 441 1
52 441 1
99 441 1
4 442 1
5 442 1
10 442 1
11 442 1
33 442 1
34 442 1
36 442 1
37 442 1
38 442 1
41 442 1
42 442 1
44 442 1
45 442 1
46 442 1
47 442 1
52 442 1
97 442 1
99 442 1
100 442 1
100 443 1
3 444 1
5 444 1
8 444 1
30 444 1
33 444 1
37 444 1
39 444 1
41 444 1
42 444 1
45 444 1
48 444 1
52 444 1
96 444 1
99 444 1
100 444 1
3 445 1
4 445 1
8 445 1
11 445 1
30 445 1
31 445 1
32 445 1
35 445 1
36 445 1
37 445 1
41 445 1
43 445 1
47 445 1
48 445 1
96 445 1
97 445 1
100 445 1
96 446 1
97 446 1
100 446 1
1 447 1
8 447 1
10 447 1
30 447 1
32 447 1
33 447 1
34 447 1
36 447 1
40 447 1
41 447 1
42 447 1
43 447 1
44 447 1
46 447 1
47 447 1
48 447 1
100 447 1
1 448 1
3 448 1
4 448 1
11 448 1
32 448 1
33 448 1
38 448 1
39 448 1
40 448 1
41 448 1
42 448 1
43 448 1
96 448 1
99 448 1
100 448 1
3 449 1
4 449 1
8 449 1
11 449 1
30 449 1
31 449 1
32 449 1
35 449 1
36 449 1
37 449 1
41 449 1
43 449 1
47 449 1
48 449 1
100 449 1
4 450 1
5 450 1
11 450 1
31 450 1
32 450 1
33 450 1
35 450 1
36 450 1
39 450 1
42 450 1
43 450 1
45 450 1
47 450 1
52 450 1
100 450 1
1 451 1
4 451 1
5 451 1
8 451 1
10 451 1
11 451 1
30 451 1
31 451 1
34 451 1
35 451 1
39 451 1
40 451 1
41 451 1
44 451 1
45 451 1
46 451 1
48 451 1
52 451 1
100 451 1
3 452 1
4 452 1
8 452 1
11 452 1
30 452 1
31 452 1
32 452 1
35 452 1
36 452 1
37 452 1
41 452 1
43 452 1
47 452 1
48 452 1
97 452 1
99 452 1
100 452 1
100 453 1
3 454 1
4 454 1
8 454 1
11 454 1
30 454 1
31 454 1
32 454 1
35 454 1
36 454 1
37 454 1
41 454 1
43 454 1
47 454 1
48 454 1
97 454 1
99 454 1
100 454 1
3 455 1
5 455 1
8 455 1
30 455 1
33 455 1
37 455 1
39 455 1
41 455 1
42 455 1
45 455 1
48 455 1
52 455 1
96 455 1
99 455 1
100 455 1
1 456 1
8 456 1
10 456 1
30 456 1
32 456 1
33 456 1
34 456 1
36 456 1
40 456 1
41 456 1
42 456 1
43 456 1
44 456 1
46 456 1
47 456 1
48 456 1
100 456 1
3 457 1
4 457 1
8 457 1
11 457 1
30 457 1
31 457 1
32 457 1
35 457 1
36 457 1
37 457 1
41 457 1
43 457 1
47 457 1
48 457 1
97 457 1
99 457 1
100 457 1
1 458 1
4 458 1
5 458 1
8 458 1
10 458 1
11 458 1
30 458 1
31 458 1
34 458 1
35 458 1
39 458 1
40 458 1
41 458 1
44 458 1
45 458 1
46 458 1
48 458 1
52 458 1
96 458 1
99 458 1
100 458 1
3 459 1
4 459 1
8 459 1
10 459 1
11 459 1
30 459 1
34 459 1
36 459 1
38 459 1
39 459 1
44 459 1
46 459 1
47 459 1
48 459 1
97 459 1
99 459 1
100 459 1
3 460 1
5 460 1
8 460 1
10 460 1
30 460 1
31 460 1
32 460 1
33 460 1
34 460 1
35 460 1
38 460 1
42 460 1
43 460 1
44 460 1
45 460 1
46 460 1
48 460 1
52 460 1
100 460 1
3 461 1
4 461 1
8 461 1
10 461 1
11 461 1
30 461 1
34 461 1
36 461 1
38 461 1
39 461 1
44 461 1
46 461 1
47 461 1
48 461 1
96 461 1
97 461 1
100 461 1
4 462 1
5 462 1
11 462 1
31 462 1
32 462 1
33 462 1
35 462 1
36 462 1
39 462 1
42 462 1
43 462 1
45 462 1
47 462 1
52 462 1
96 462 1
99 462 1
100 462 1
4 463 1
5 463 1
11 463 1
31 463 1
32 463 1
33 463 1
35 463 1
36 463 1
39 463 1
42 463 1
43 463 1
45 463 1
47 463 1
52 463 1
99 463 1
100 463 1
1 464 1
3 464 1
5 464 1
31 464 1
35 464 1
36 464 1
38 464 1
40 464 1
41 464 1
45 464 1
47 464 1
52 464 1
99 464 1
100 464 1
3 465 1
5 465 1
8 465 1
30 465 1
33 465 1
37 465 1
39 465 1
41 465 1
42 465 1
45 465 1
48 465 1
52 465 1
96 465 1
100 465 1
3 466 1
4 466 1
8 466 1
11 466 1
30 466 1
31 466 1
32 466 1
35 466 1
36 466 1
37 466 1
41 466 1
43 466 1
47 466 1
48 466 1
96 466 1
100 466 1
1 467 1
3 467 1
4 467 1
11 467 1
32 467 1
33 467 1
38 467 1
39 467 1
40 467 1
41 467 1
42 467 1
43 467 1
99 467 1
100 467 1
1 468 1
4 468 1
5 468 1
8 468 1
10 468 1
11 468 1
30 468 1
31 468 1
34 468 1
35 468 1
39 468 1
40 468 1
41 468 1
44 468 1
45 468 1
46 468 1
48 468 1
52 468 1
99 468 1
100 468 1
3 469 1
4 469 1
8 469 1
11 469 1
30 469 1
31 469 1
32 469 1
35 469 1
36 469 1
37 469 1
41 469 1
43 469 1
47 469 1
48 469 1
99 469 1
100 469 1
1 470 1
8 470 1
30 470 1
31 470 1
33 470 1
35 470 1
36 470 1
37 470 1
38 470 1
39 470 1
40 470 1
42 470 1
47 470 1
48 470 1
96 470 1
97 470 1
99 470 1
100 470 1
3 471 1
5 471 1
8 471 1
30 471 1
33 471 1
37 471 1
39 471 1
41 471 1
42 471 1
45 471 1
48 471 1
52 471 1
97 471 1
100 471 1
1 472 1
3 472 1
5 472 1
31 472 1
35 472 1
36 472 1
38 472 1
40 472 1
41 472 1
45 472 1
47 472 1
52 472 1
99 472 1
100 472 1
3 473 1
4 473 1
8 473 1
10 473 1
11 473 1
30 473 1
34 473 1
36 473 1
38 473 1
39 473 1
44 473 1
46 473 1
47 473 1
48 473 1
96 473 1
97 473 1
99 473 1
100 473 1
99 474 1
100 474 1
1 475 1
3 475 1
5 475 1
31 475 1
35 475 1
36 475 1
38 475 1
40 475 1
41 475 1
45 475 1
47 475 1
52 475 1
96 475 1
100 475 1
1 476 1
4 476 1
5 476 1
8 476 1
10 476 1
11 476 1
30 476 1
31 476 1
34 476 1
35 476 1
39 476 1
40 476 1
41 476 1
44 476 1
45 476 1
46 476 1
48 476 1
52 476 1
96 476 1
97 476 1
99 476 1
100 476 1
4 477 1
5 477 1
10 477 1
11 477 1
33 477 1
34 477 1
36 477 1
37 477 1
38 477 1
41 477 1
42 477 1
44 477 1
45 477 1
46 477 1
47 477 1
52 477 1
97 477 1
100 477 1
10 478 1
31 478 1
32 478 1
34 478 1
35 478 1
37 478 1
38 478 1
39 478 1
41 478 1
43 478 1
44 478 1
46 478 1
96 478 1
100 478 1
1 479 1
3 479 1
5 479 1
10 479 1
32 479 1
34 479 1
36 479 1
37 479 1
39 479 1
40 479 1
43 479 1
44 479 1
45 479 1
46 479 1
47 479 1
52 479 1
96 479 1
97 479 1
99 479 1
100 479 1
1 480 1
8 480 1
10 480 1
30 480 1
32 480 1
33 480 1
34 480 1
36 480 1
40 480 1
41 480 1
42 480 1
43 480 1
44 480 1
46 480 1
47 480 1
48 480 1
99 480 1
100 480 1
3 481 1
4 481 1
8 481 1
10 481 1
11 481 1
30 481 1
34 481 1
36 481 1
38 481 1
39 481 1
44 481 1
46 481 1
47 481 1
48 481 1
96 481 1
97 481 1
99 481 1
100 481 1
4 482 1
5 482 1
11 482 1
31 482 1
32 482 1
33 482 1
35 482 1
36 482 1
39 482 1
42 482 1
43 482 1
45 482 1
47 482 1
52 482 1
96 482 1
97 482 1
99 482 1
100 482 1
1 483 1
8 483 1
30 483 1
31 483 1
33 483 1
35 483 1
36 483 1
37 483 1
38 483 1
39 483 1
40 483 1
42 483 1
47 483 1
48 483 1
96 483 1
100 483 1
1 484 1
3 484 1
5 484 1
31 484 1
35 484 1
36 484 1
38 484 1
40 484 1
41 484 1
45 484 1
47 484 1
52 484 1
96 484 1
99 484 1
3 505 1
4 505 1
8 505 1
11 505 1
30 505 1
31 505 1
32 505 1
35 505 1
36 505 1
37 505 1
41 505 1
43 505 1
47 505 1
48 505 1
97 505 1
99 505 1
1 526 1
4 526 1
5 526 1
8 526 1
10 526 1
11 526 1
30 526 1
31 526 1
34 526 1
35 526 1
39 526 1
40 526 1
41 526 1
44 526 1
45 526 1
46 526 1
48 526 1
52 526 1
1 547 1
4 547 1
5 547 1
8 547 1
11 547 1
30 547 1
32 547 1
37 547 1
38 547 1
40 547 1
43 547 1
45 547 1
48 547 1
52 547 1
3 589 1
4 589 1
8 589 1
11 589 1
30 589 1
31 589 1
32 589 1
35 589 1
36 589 1
37 589 1
41 589 1
43 589 1
47 589 1
48 589 1
4 610 1
5 610 1
10 610 1
11 610 1
33 610 1
34 610 1
36 610 1
37 610 1
38 610 1
41 610 1
42 610 1
44 610 1
45 610 1
46 610 1
47 610 1
52 610 1
1 652 1
3 652 1
5 652 1
10 652 1
32 652 1
34 652 1
36 652 1
37 652 1
39 652 1
40 652 1
43 652 1
44 652 1
45 652 1
46 652 1
47 652 1
52 652 1
1 673 1
8 673 1
10 673 1
30 673 1
32 673 1
33 673 1
34 673 1
36 673 1
40 673 1
41 673 1
42 673 1
43 673 1
44 673 1
46 673 1
47 673 1
48 673 1
