%%MatrixMarket matrix coordinate integer general
240 544 1920
1 1 1
81 1 1
161 1 1
2 2 1
82 2 1
162 2 1
3 3 1
83 3 1
163 3 1
4 4 1
84 4 1
164 4 1
5 5 1
85 5 1
165 5 1
6 6 1
86 6 1
166 6 1
7 7 1
87 7 1
167 7 1
8 8 1
88 8 1
168 8 1
9 9 1
89 9 1
169 9 1
10 10 1
90 10 1
170 10 1
11 11 1
91 11 1
171 11 1
12 12 1
92 12 1
172 12 1
13 13 1
93 13 1
173 13 1
14 14 1
94 14 1
174 14 1
15 15 1
95 15 1
175 15 1
16 16 1
96 16 1
176 16 1
17 17 1
97 17 1
177 17 1
18 18 1
98 18 1
178 18 1
19 19 1
99 19 1
179 19 1
20 20 1
100 20 1
180 20 1
21 21 1
101 21 1
181 21 1
22 22 1
102 22 1
182 22 1
23 23 1
103 23 1
183 23 1
24 24 1
104 24 1
184 24 1
25 25 1
105 25 1
185 25 1
26 26 1
106 26 1
186 26 1
27 27 1
107 27 1
187 27 1
28 28 1
108 28 1
188 28 1
29 29 1
109 29 1
189 29 1
30 30 1
110 30 1
190 30 1
31 31 1
111 31 1
191 31 1
32 32 1
112 32 1
192 32 1
33 33 1
113 33 1
193 33 1
34 34 1
114 34 1
194 34 1
35 35 1
115 35 1
195 35 1
36 36 1
116 36 1
196 36 1
37 37 1
117 37 1
197 37 1
38 38 1
118 38 1
198 38 1
39 39 1
119 39 1
199 39 1
40 40 1
120 40 1
200 40 1
41 41 1
121 41 1
201 41 1
42 42 1
122 42 1
202 42 1
43 43 1
123 43 1
203 43 1
44 44 1
124 44 1
204 44 1
45 45 1
125 45 1
205 45 1
46 46 1
126 46 1
206 46 1
47 47 1
127 47 1
207 47 1
48 48 1
128 48 1
208 48 1
49 49 1
129 49 1
209 49 1
50 50 1
130 50 1
210 50 1
51 51 1
131 51 1
211 51 1
52 52 1
132 52 1
212 52 1
53 53 1
133 53 1
213 53 1
54 54 1
134 54 1
214 54 1
55 55 1
135 55 1
215 55 1
56 56 1
136 56 1
216 56 1
57 57 1
137 57 1
217 57 1
58 58 1
138 58 1
218 58 1
59 59 1
139 59 1
219 59 1
60 60 1
140 60 1
220 60 1
61 61 1
141 61 1
221 61 1
62 62 1
142 62 1
222 62 1
63 63 1
143 63 1
223 63 1
64 64 1
144 64 1
224 64 1
65 65 1
145 65 1
225 65 1
66 66 1
146 66 1
226 66 1
67 67 1
147 67 1
227 67 1
68 68 1
148 68 1
228 68 1
69 69 1
149 69 1
229 69 1
70 70 1
150 70 1
230 70 1
71 71 1
151 71 1
231 71 1
72 72 1
152 72 1
232 72 1
73 73 1
153 73 1
233 73 1
74 74 1
154 74 1
234 74 1
75 75 1
155 75 1
235 75 1
76 76 1
156 76 1
236 76 1
77 77 1
157 77 1
237 77 1
78 78 1
158 78 1
238 78 1
79 79 1
159 79 1
239 79 1
80 80 1
160 80 1
240 80 1
1 81 1
83 81 1
164 81 1
2 82 1
84 82 1
165 82 1
3 83 1
85 83 1
166 83 1
4 84 1
86 84 1
167 84 1
5 85 1
87 85 1
168 85 1
6 86 1
88 86 1
169 86 1
7 87 1
89 87 1
170 87 1
8 88 1
90 88 1
171 88 1
9 89 1
91 89 1
172 89 1
10 90 1
92 90 1
173 90 1
11 91 1
93 91 1
174 91 1
12 92 1
94 92 1
175 92 1
13 93 1
95 93 1
176 93 1
14 94 1
96 94 1
161 94 1
15 95 1
81 95 1
162 95 1
16 96 1
82 96 1
163 96 1
17 97 1
99 97 1
180 97 1
18 98 1
100 98 1
181 98 1
19 99 1
101 99 1
182 99 1
20 100 1
102 100 1
183 100 1
21 101 1
103 101 1
184 101 1
22 102 1
104 102 1
185 102 1
23 103 1
105 103 1
186 103 1
24 104 1
106 104 1
187 104 1
25 105 1
107 105 1
188 105 1
26 106 1
108 106 1
189 106 1
27 107 1
109 107 1
190 107 1
28 108 1
110 108 1
191 108 1
29 109 1
111 109 1
192 109 1
30 110 1
112 110 1
177 110 1
31 111 1
97 111 1
178 111 1
32 112 1
98 112 1
179 112 1
33 113 1
115 113 1
196 113 1
34 114 1
116 114 1
197 114 1
35 115 1
117 115 1
198 115 1
36 116 1
118 116 1
199 116 1
37 117 1
119 117 1
200 117 1
38 118 1
120 118 1
201 118 1
39 119 1
121 119 1
202 119 1
40 120 1
122 120 1
203 120 1
41 121 1
123 121 1
204 121 1
42 122 1
124 122 1
205 122 1
43 123 1
125 123 1
206 123 1
44 124 1
126 124 1
207 124 1
45 125 1
127 125 1
208 125 1
46 126 1
128 126 1
193 126 1
47 127 1
113 127 1
194 127 1
48 128 1
114 128 1
195 128 1
49 129 1
131 129 1
212 129 1
50 130 1
132 130 1
213 130 1
51 131 1
133 131 1
214 131 1
52 132 1
134 132 1
215 132 1
53 133 1
135 133 1
216 133 1
54 134 1
136 134 1
217 134 1
55 135 1
137 135 1
218 135 1
56 136 1
138 136 1
219 136 1
57 137 1
139 137 1
220 137 1
58 138 1
140 138 1
221 138 1
59 139 1
141 139 1
222 139 1
60 140 1
142 140 1
223 140 1
61 141 1
143 141 1
224 141 1
62 142 1
144 142 1
209 142 1
63 143 1
129 143 1
210 143 1
64 144 1
130 144 1
211 144 1
65 145 1
147 145 1
228 145 1
66 146 1
148 146 1
229 146 1
67 147 1
149 147 1
230 147 1
68 148 1
150 148 1
231 148 1
69 149 1
151 149 1
232 149 1
70 150 1
152 150 1
233 150 1
71 151 1
153 151 1
234 151 1
72 152 1
154 152 1
235 152 1
73 153 1
155 153 1
236 153 1
74 154 1
156 154 1
237 154 1
75 155 1
157 155 1
238 155 1
76 156 1
158 156 1
239 156 1
77 157 1
159 157 1
240 157 1
78 158 1
160 158 1
225 158 1
79 159 1
145 159 1
226 159 1
80 160 1
146 160 1
227 160 1
1 161 1
85 161 1
171 161 1
2 162 1
86 162 1
172 162 1
3 163 1
87 163 1
173 163 1
4 164 1
88 164 1
174 164 1
5 165 1
89 165 1
175 165 1
6 166 1
90 166 1
176 166 1
7 167 1
91 167 1
161 167 1
8 168 1
92 168 1
162 168 1
9 169 1
93 169 1
163 169 1
10 170 1
94 170 1
164 170 1
11 171 1
95 171 1
165 171 1
12 172 1
96 172 1
166 172 1
13 173 1
81 173 1
167 173 1
14 174 1
82 174 1
168 174 1
15 175 1
83 175 1
169 175 1
16 176 1
84 176 1
170 176 1
17 177 1
101 177 1
187 177 1
18 178 1
102 178 1
188 178 1
19 179 1
103 179 1
189 179 1
20 180 1
104 180 1
190 180 1
21 181 1
105 181 1
191 181 1
22 182 1
106 182 1
192 182 1
23 183 1
107 183 1
177 183 1
24 184 1
108 184 1
178 184 1
25 185 1
109 185 1
179 185 1
26 186 1
110 186 1
180 186 1
27 187 1
111 187 1
181 187 1
28 188 1
112 188 1
182 188 1
29 189 1
97 189 1
183 189 1
30 190 1
98 190 1
184 190 1
31 191 1
99 191 1
185 191 1
32 192 1
100 192 1
186 192 1
33 193 1
117 193 1
203 193 1
34 194 1
118 194 1
204 194 1
35 195 1
119 195 1
205 195 1
36 196 1
120 196 1
206 196 1
37 197 1
121 197 1
207 197 1
38 198 1
122 198 1
208 198 1
39 199 1
123 199 1
193 199 1
40 200 1
124 200 1
194 200 1
41 201 1
125 201 1
195 201 1
42 202 1
126 202 1
196 202 1
43 203 1
127 203 1
197 203 1
44 204 1
128 204 1
198 204 1
45 205 1
113 205 1
199 205 1
46 206 1
114 206 1
200 206 1
47 207 1
115 207 1
201 207 1
48 208 1
116 208 1
202 208 1
49 209 1
133 209 1
219 209 1
50 210 1
134 210 1
220 210 1
51 211 1
135 211 1
221 211 1
52 212 1
136 212 1
222 212 1
53 213 1
137 213 1
223 213 1
54 214 1
138 214 1
224 214 1
55 215 1
139 215 1
209 215 1
56 216 1
140 216 1
210 216 1
57 217 1
141 217 1
211 217 1
58 218 1
142 218 1
212 218 1
59 219 1
143 219 1
213 219 1
60 220 1
144 220 1
214 220 1
61 221 1
129 221 1
215 221 1
62 222 1
130 222 1
216 222 1
63 223 1
131 223 1
217 223 1
64 224 1
132 224 1
218 224 1
65 225 1
149 225 1
235 225 1
66 226 1
150 226 1
236 226 1
67 227 1
151 227 1
237 227 1
68 228 1
152 228 1
238 228 1
69 229 1
153 229 1
239 229 1
70 230 1
154 230 1
240 230 1
71 231 1
155 231 1
225 231 1
72 232 1
156 232 1
226 232 1
73 233 1
157 233 1
227 233 1
74 234 1
158 234 1
228 234 1
75 235 1
159 235 1
229 235 1
76 236 1
160 236 1
230 236 1
77 237 1
145 237 1
231 237 1
78 238 1
146 238 1
232 238 1
79 239 1
147 239 1
233 239 1
80 240 1
148 240 1
234 240 1
1 241 1
88 241 1
175 241 1
2 242 1
89 242 1
176 242 1
3 243 1
90 243 1
161 243 1
4 244 1
91 244 1
162 244 1
5 245 1
92 245 1
163 245 1
6 246 1
93 246 1
164 246 1
7 247 1
94 247 1
165 247 1
8 248 1
95 248 1
166 248 1
9 249 1
96 249 1
167 249 1
10 250 1
81 250 1
168 250 1
11 251 1
82 251 1
169 251 1
12 252 1
83 252 1
170 252 1
13 253 1
84 253 1
171 253 1
14 254 1
85 254 1
172 254 1
15 255 1
86 255 1
173 255 1
16 256 1
87 256 1
174 256 1
17 257 1
104 257 1
191 257 1
18 258 1
105 258 1
192 258 1
19 259 1
106 259 1
177 259 1
20 260 1
107 260 1
178 260 1
21 261 1
108 261 1
179 261 1
22 262 1
109 262 1
180 262 1
23 263 1
110 263 1
181 263 1
24 264 1
111 264 1
182 264 1
25 265 1
112 265 1
183 265 1
26 266 1
97 266 1
184 266 1
27 267 1
98 267 1
185 267 1
28 268 1
99 268 1
186 268 1
29 269 1
100 269 1
187 269 1
30 270 1
101 270 1
188 270 1
31 271 1
102 271 1
189 271 1
32 272 1
103 272 1
190 272 1
33 273 1
120 273 1
207 273 1
34 274 1
121 274 1
208 274 1
35 275 1
122 275 1
193 275 1
36 276 1
123 276 1
194 276 1
37 277 1
124 277 1
195 277 1
38 278 1
125 278 1
196 278 1
39 279 1
126 279 1
197 279 1
40 280 1
127 280 1
198 280 1
41 281 1
128 281 1
199 281 1
42 282 1
113 282 1
200 282 1
43 283 1
114 283 1
201 283 1
44 284 1
115 284 1
202 284 1
45 285 1
116 285 1
203 285 1
46 286 1
117 286 1
204 286 1
47 287 1
118 287 1
205 287 1
48 288 1
119 288 1
206 288 1
49 289 1
136 289 1
223 289 1
50 290 1
137 290 1
224 290 1
51 291 1
138 291 1
209 291 1
52 292 1
139 292 1
210 292 1
53 293 1
140 293 1
211 293 1
54 294 1
141 294 1
212 294 1
55 295 1
142 295 1
213 295 1
56 296 1
143 296 1
214 296 1
57 297 1
144 297 1
215 297 1
58 298 1
129 298 1
216 298 1
59 299 1
130 299 1
217 299 1
60 300 1
131 300 1
218 300 1
61 301 1
132 301 1
219 301 1
62 302 1
133 302 1
220 302 1
63 303 1
134 303 1
221 303 1
64 304 1
135 304 1
222 304 1
65 305 1
152 305 1
239 305 1
66 306 1
153 306 1
240 306 1
67 307 1
154 307 1
225 307 1
68 308 1
155 308 1
226 308 1
69 309 1
156 309 1
227 309 1
70 310 1
157 310 1
228 310 1
71 311 1
158 311 1
229 311 1
72 312 1
159 312 1
230 312 1
73 313 1
160 313 1
231 313 1
74 314 1
145 314 1
232 314 1
75 315 1
146 315 1
233 315 1
76 316 1
147 316 1
234 316 1
77 317 1
148 317 1
235 317 1
78 318 1
149 318 1
236 318 1
79 319 1
150 319 1
237 319 1
80 320 1
151 320 1
238 320 1
1 321 1
92 321 1
176 321 1
2 322 1
93 322 1
161 322 1
3 323 1
94 323 1
162 323 1
4 324 1
95 324 1
163 324 1
5 325 1
96 325 1
164 325 1
6 326 1
81 326 1
165 326 1
7 327 1
82 327 1
166 327 1
8 328 1
83 328 1
167 328 1
9 329 1
84 329 1
168 329 1
10 330 1
85 330 1
169 330 1
11 331 1
86 331 1
170 331 1
12 332 1
87 332 1
171 332 1
13 333 1
88 333 1
172 333 1
14 334 1
89 334 1
173 334 1
15 335 1
90 335 1
174 335 1
16 336 1
91 336 1
175 336 1
17 337 1
108 337 1
192 337 1
18 338 1
109 338 1
177 338 1
19 339 1
110 339 1
178 339 1
20 340 1
111 340 1
179 340 1
21 341 1
112 341 1
180 341 1
22 342 1
97 342 1
181 342 1
23 343 1
98 343 1
182 343 1
24 344 1
99 344 1
183 344 1
25 345 1
100 345 1
184 345 1
26 346 1
101 346 1
185 346 1
27 347 1
102 347 1
186 347 1
28 348 1
103 348 1
187 348 1
29 349 1
104 349 1
188 349 1
30 350 1
105 350 1
189 350 1
31 351 1
106 351 1
190 351 1
32 352 1
107 352 1
191 352 1
33 353 1
124 353 1
208 353 1
34 354 1
125 354 1
193 354 1
35 355 1
126 355 1
194 355 1
36 356 1
127 356 1
195 356 1
37 357 1
128 357 1
196 357 1
38 358 1
113 358 1
197 358 1
39 359 1
114 359 1
198 359 1
40 360 1
115 360 1
199 360 1
41 361 1
116 361 1
200 361 1
42 362 1
117 362 1
201 362 1
43 363 1
118 363 1
202 363 1
44 364 1
119 364 1
203 364 1
45 365 1
120 365 1
204 365 1
46 366 1
121 366 1
205 366 1
47 367 1
122 367 1
206 367 1
48 368 1
123 368 1
207 368 1
49 369 1
140 369 1
224 369 1
50 370 1
141 370 1
209 370 1
51 371 1
142 371 1
210 371 1
52 372 1
143 372 1
211 372 1
53 373 1
144 373 1
212 373 1
54 374 1
129 374 1
213 374 1
55 375 1
130 375 1
214 375 1
56 376 1
131 376 1
215 376 1
57 377 1
132 377 1
216 377 1
58 378 1
133 378 1
217 378 1
59 379 1
134 379 1
218 379 1
60 380 1
135 380 1
219 380 1
61 381 1
136 381 1
220 381 1
62 382 1
137 382 1
221 382 1
63 383 1
138 383 1
222 383 1
64 384 1
139 384 1
223 384 1
65 385 1
156 385 1
240 385 1
66 386 1
157 386 1
225 386 1
67 387 1
158 387 1
226 387 1
68 388 1
159 388 1
227 388 1
69 389 1
160 389 1
228 389 1
70 390 1
145 390 1
229 390 1
71 391 1
146 391 1
230 391 1
72 392 1
147 392 1
231 392 1
73 393 1
148 393 1
232 393 1
74 394 1
149 394 1
233 394 1
75 395 1
150 395 1
234 395 1
76 396 1
151 396 1
235 396 1
77 397 1
152 397 1
236 397 1
78 398 1
153 398 1
237 398 1
79 399 1
154 399 1
238 399 1
80 400 1
155 400 1
239 400 1
1 401 1
17 401 1
33 401 1
49 401 1
65 401 1
2 402 1
18 402 1
34 402 1
50 402 1
66 402 1
3 403 1
19 403 1
35 403 1
51 403 1
67 403 1
4 404 1
20 404 1
36 404 1
52 404 1
68 404 1
5 405 1
21 405 1
37 405 1
53 405 1
69 405 1
6 406 1
22 406 1
38 406 1
54 406 1
70 406 1
7 407 1
23 407 1
39 407 1
55 407 1
71 407 1
8 408 1
24 408 1
40 408 1
56 408 1
72 408 1
9 409 1
25 409 1
41 409 1
57 409 1
73 409 1
10 410 1
26 410 1
42 410 1
58 410 1
74 410 1
11 411 1
27 411 1
43 411 1
59 411 1
75 411 1
12 412 1
28 412 1
44 412 1
60 412 1
76 412 1
13 413 1
29 413 1
45 413 1
61 413 1
77 413 1
14 414 1
30 414 1
46 414 1
62 414 1
78 414 1
15 415 1
31 415 1
47 415 1
63 415 1
79 415 1
16 416 1
32 416 1
48 416 1
64 416 1
80 416 1
1 417 1
31 417 1
45 417 1
58 417 1
70 417 1
2 418 1
32 418 1
46 418 1
59 418 1
71 418 1
3 419 1
17 419 1
47 419 1
60 419 1
72 419 1
4 420 1
18 420 1
48 420 1
61 420 1
73 420 1
5 421 1
19 421 1
33 421 1
62 421 1
74 421 1
6 422 1
20 422 1
34 422 1
63 422 1
75 422 1
7 423 1
21 423 1
35 423 1
64 423 1
76 423 1
8 424 1
22 424 1
36 424 1
49 424 1
77 424 1
9 425 1
23 425 1
37 425 1
50 425 1
78 425 1
10 426 1
24 426 1
38 426 1
51 426 1
79 426 1
11 427 1
25 427 1
39 427 1
52 427 1
80 427 1
12 428 1
26 428 1
40 428 1
53 428 1
65 428 1
13 429 1
27 429 1
41 429 1
54 429 1
66 429 1
14 430 1
28 430 1
42 430 1
55 430 1
67 430 1
15 431 1
29 431 1
43 431 1
56 431 1
68 431 1
16 432 1
30 432 1
44 432 1
57 432 1
69 432 1
1 433 1
30 433 1
39 433 1
51 433 1
66 433 1
2 434 1
31 434 1
40 434 1
52 434 1
67 434 1
3 435 1
32 435 1
41 435 1
53 435 1
68 435 1
4 436 1
17 436 1
42 436 1
54 436 1
69 436 1
5 437 1
18 437 1
43 437 1
55 437 1
70 437 1
6 438 1
19 438 1
44 438 1
56 438 1
71 438 1
7 439 1
20 439 1
45 439 1
57 439 1
72 439 1
8 440 1
21 440 1
46 440 1
58 440 1
73 440 1
9 441 1
22 441 1
47 441 1
59 441 1
74 441 1
10 442 1
23 442 1
48 442 1
60 442 1
75 442 1
11 443 1
24 443 1
33 443 1
61 443 1
76 443 1
12 444 1
25 444 1
34 444 1
62 444 1
77 444 1
13 445 1
26 445 1
35 445 1
63 445 1
78 445 1
14 446 1
27 446 1
36 446 1
64 446 1
79 446 1
15 447 1
28 447 1
37 447 1
49 447 1
80 447 1
16 448 1
29 448 1
38 448 1
50 448 1
65 448 1
81 449 1
97 449 1
113 449 1
129 449 1
145 449 1
82 450 1
98 450 1
114 450 1
130 450 1
146 450 1
83 451 1
99 451 1
115 451 1
131 451 1
147 451 1
84 452 1
100 452 1
116 452 1
132 452 1
148 452 1
85 453 1
101 453 1
117 453 1
133 453 1
149 453 1
86 454 1
102 454 1
118 454 1
134 454 1
150 454 1
87 455 1
103 455 1
119 455 1
135 455 1
151 455 1
88 456 1
104 456 1
120 456 1
136 456 1
152 456 1
89 457 1
105 457 1
121 457 1
137 457 1
153 457 1
90 458 1
106 458 1
122 458 1
138 458 1
154 458 1
91 459 1
107 459 1
123 459 1
139 459 1
155 459 1
92 460 1
108 460 1
124 460 1
140 460 1
156 460 1
93 461 1
109 461 1
125 461 1
141 461 1
157 461 1
94 462 1
110 462 1
126 462 1
142 462 1
158 462 1
95 463 1
111 463 1
127 463 1
143 463 1
159 463 1
96 464 1
112 464 1
128 464 1
144 464 1
160 464 1
81 465 1
111 465 1
125 465 1
138 465 1
150 465 1
82 466 1
112 466 1
126 466 1
139 466 1
151 466 1
83 467 1
97 467 1
127 467 1
140 467 1
152 467 1
84 468 1
98 468 1
128 468 1
141 468 1
153 468 1
85 469 1
99 469 1
113 469 1
142 469 1
154 469 1
86 470 1
100 470 1
114 470 1
143 470 1
155 470 1
87 471 1
101 471 1
115 471 1
144 471 1
156 471 1
88 472 1
102 472 1
116 472 1
129 472 1
157 472 1
89 473 1
103 473 1
117 473 1
130 473 1
158 473 1
90 474 1
104 474 1
118 474 1
131 474 1
159 474 1
91 475 1
105 475 1
119 475 1
132 475 1
160 475 1
92 476 1
106 476 1
120 476 1
133 476 1
145 476 1
93 477 1
107 477 1
121 477 1
134 477 1
146 477 1
94 478 1
108 478 1
122 478 1
135 478 1
147 478 1
95 479 1
109 479 1
123 479 1
136 479 1
148 479 1
96 480 1
110 480 1
124 480 1
137 480 1
149 480 1
81 481 1
110 481 1
119 481 1
131 481 1
146 481 1
82 482 1
111 482 1
120 482 1
132 482 1
147 482 1
83 483 1
112 483 1
121 483 1
133 483 1
148 483 1
84 484 1
97 484 1
122 484 1
134 484 1
149 484 1
85 485 1
98 485 1
123 485 1
135 485 1
150 485 1
86 486 1
99 486 1
124 486 1
136 486 1
151 486 1
87 487 1
100 487 1
125 487 1
137 487 1
152 487 1
88 488 1
101 488 1
126 488 1
138 488 1
153 488 1
89 489 1
102 489 1
127 489 1
139 489 1
154 489 1
90 490 1
103 490 1
128 490 1
140 490 1
155 490 1
91 491 1
104 491 1
113 491 1
141 491 1
156 491 1
92 492 1
105 492 1
114 492 1
142 492 1
157 492 1
93 493 1
106 493 1
115 493 1
143 493 1
158 493 1
94 494 1
107 494 1
116 494 1
144 494 1
159 494 1
95 495 1
108 495 1
117 495 1
129 495 1
160 495 1
96 496 1
109 496 1
118 496 1
130 496 1
145 496 1
161 497 1
177 497 1
193 497 1
209 497 1
225 497 1
162 498 1
178 498 1
194 498 1
210 498 1
226 498 1
163 499 1
179 499 1
195 499 1
211 499 1
227 499 1
164 500 1
180 500 1
196 500 1
212 500 1
228 500 1
165 501 1
181 501 1
197 501 1
213 501 1
229 501 1
166 502 1
182 502 1
198 502 1
214 502 1
230 502 1
167 503 1
183 503 1
199 503 1
215 503 1
231 503 1
168 504 1
184 504 1
200 504 1
216 504 1
232 504 1
169 505 1
185 505 1
201 505 1
217 505 1
233 505 1
170 506 1
186 506 1
202 506 1
218 506 1
234 506 1
171 507 1
187 507 1
203 507 1
219 507 1
235 507 1
172 508 1
188 508 1
204 508 1
220 508 1
236 508 1
173 509 1
189 509 1
205 509 1
221 509 1
237 509 1
174 510 1
190 510 1
206 510 1
222 510 1
238 510 1
175 511 1
191 511 1
207 511 1
223 511 1
239 511 1
176 512 1
192 512 1
208 512 1
224 512 1
240 512 1
161 513 1
191 513 1
205 513 1
218 513 1
230 513 1
162 514 1
192 514 1
206 514 1
219 514 1
231 514 1
163 515 1
177 515 1
207 515 1
220 515 1
232 515 1
164 516 1
178 516 1
208 516 1
221 516 1
233 516 1
165 517 1
179 517 1
193 517 1
222 517 1
234 517 1
166 518 1
180 518 1
194 518 1
223 518 1
235 518 1
167 519 1
181 519 1
195 519 1
224 519 1
236 519 1
168 520 1
182 520 1
196 520 1
209 520 1
237 520 1
169 521 1
183 521 1
197 521 1
210 521 1
238 521 1
170 522 1
184 522 1
198 522 1
211 522 1
239 522 1
171 523 1
185 523 1
199 523 1
212 523 1
240 523 1
172 524 1
186 524 1
200 524 1
213 524 1
225 524 1
173 525 1
187 525 1
201 525 1
214 525 1
226 525 1
174 526 1
188 526 1
202 526 1
215 526 1
227 526 1
175 527 1
189 527 1
203 527 1
216 527 1
228 527 1
176 528 1
190 528 1
204 528 1
217 528 1
229 528 1
161 529 1
190 529 1
199 529 1
211 529 1
226 529 1
162 530 1
191 530 1
200 530 1
212 530 1
227 530 1
163 531 1
192 531 1
201 531 1
213 531 1
228 531 1
164 532 1
177 532 1
202 532 1
214 532 1
229 532 1
165 533 1
178 533 1
203 533 1
215 533 1
230 533 1
166 534 1
179 534 1
204 534 1
216 534 1
231 534 1
167 535 1
180 535 1
205 535 1
217 535 1
232 535 1
168 536 1
181 536 1
206 536 1
218 536 1
233 536 1
169 537 1
182 537 1
207 537 1
219 537 1
234 537 1
170 538 1
183 538 1
208 538 1
220 538 1
235 538 1
171 539 1
184 539 1
193 539 1
221 539 1
236 539 1
172 540 1
185 540 1
194 540 1
222 540 1
237 540 1
173 541 1
186 541 1
195 541 1
223 541 1
238 541 1
174 542 1
187 542 1
196 542 1
224 542 1
239 542 1
175 543 1
188 543 1
197 543 1
209 543 1
240 543 1
176 544 1
189 544 1
198 544 1
210 544 1
225 544 1
