%%MatrixMarket matrix coordinate integer general
136 1020 13398
1 179 1
3 179 1
5 179 1
6 179 1
7 179 1
9 179 1
10 179 1
13 179 1
15 179 1
16 179 1
20 179 1
25 179 1
26 179 1
27 179 1
28 179 1
29 179 1
31 179 1
36 179 1
37 179 1
38 179 1
48 179 1
49 179 1
50 179 1
51 179 1
52 179 1
53 179 1
55 179 1
56 179 1
57 179 1
59 179 1
63 179 1
67 179 1
98 179 1
99 179 1
102 179 1
106 179 1
113 179 1
114 179 1
115 179 1
117 179 1
121 179 1
122 179 1
123 179 1
125 179 1
126 179 1
128 179 1
5 180 1
4 181 1
2 182 1
3 182 1
4 182 1
7 182 1
9 182 1
11 182 1
14 182 1
15 182 1
17 182 1
19 182 1
21 182 1
22 182 1
25 182 1
30 182 1
31 182 1
32 182 1
35 182 1
36 182 1
39 182 1
41 182 1
42 182 1
45 182 1
47 182 1
48 182 1
50 182 1
52 182 1
55 182 1
57 182 1
58 182 1
60 182 1
63 182 1
67 182 1
96 182 1
97 182 1
100 182 1
101 182 1
102 182 1
106 182 1
107 182 1
108 182 1
109 182 1
111 182 1
118 182 1
122 182 1
123 182 1
124 182 1
127 182 1
128 182 1
1 183 1
3 183 1
4 183 1
6 183 1
12 183 1
14 183 1
15 183 1
16 183 1
18 183 1
21 183 1
23 183 1
25 183 1
27 183 1
28 183 1
30 183 1
31 183 1
33 183 1
39 183 1
43 183 1
45 183 1
46 183 1
47 183 1
50 183 1
55 183 1
58 183 1
60 183 1
62 183 1
63 183 1
64 183 1
67 183 1
96 183 1
97 183 1
101 183 1
106 183 1
107 183 1
108 183 1
109 183 1
110 183 1
114 183 1
117 183 1
119 183 1
120 183 1
122 183 1
123 183 1
124 183 1
125 183 1
127 183 1
2 184 1
3 184 1
4 184 1
5 184 1
7 184 1
8 184 1
11 184 1
12 184 1
13 184 1
14 184 1
16 184 1
21 184 1
28 184 1
29 184 1
30 184 1
31 184 1
36 184 1
39 184 1
41 184 1
42 184 1
45 184 1
47 184 1
48 184 1
50 184 1
52 184 1
55 184 1
57 184 1
58 184 1
60 184 1
63 184 1
67 184 1
96 184 1
97 184 1
100 184 1
101 184 1
102 184 1
106 184 1
107 184 1
108 184 1
109 184 1
111 184 1
118 184 1
122 184 1
123 184 1
124 184 1
127 184 1
128 184 1
1 185 1
3 185 1
4 185 1
7 185 1
8 185 1
9 185 1
10 185 1
12 185 1
13 185 1
14 185 1
15 185 1
16 185 1
17 185 1
18 185 1
19 185 1
21 185 1
22 185 1
27 185 1
28 185 1
29 185 1
31 185 1
32 185 1
35 185 1
36 185 1
37 185 1
39 185 1
41 185 1
42 185 1
46 185 1
47 185 1
49 185 1
52 185 1
53 185 1
55 185 1
57 185 1
60 185 1
63 185 1
64 185 1
96 185 1
100 185 1
102 185 1
106 185 1
108 185 1
109 185 1
110 185 1
111 185 1
113 185 1
115 185 1
118 185 1
119 185 1
120 185 1
121 185 1
123 185 1
124 185 1
125 185 1
128 185 1
2 186 1
3 186 1
4 186 1
5 186 1
6 186 1
7 186 1
8 186 1
10 186 1
11 186 1
12 186 1
17 186 1
18 186 1
19 186 1
21 186 1
23 186 1
25 186 1
27 186 1
28 186 1
29 186 1
31 186 1
32 186 1
33 186 1
4 187 1
5 187 1
6 187 1
7 187 1
8 187 1
9 187 1
13 187 1
14 187 1
19 187 1
24 187 1
25 187 1
26 187 1
29 187 1
31 187 1
32 187 1
33 187 1
37 187 1
39 187 1
43 187 1
47 187 1
48 187 1
49 187 1
53 187 1
55 187 1
60 187 1
62 187 1
63 187 1
96 187 1
106 187 1
108 187 1
109 187 1
113 187 1
114 187 1
115 187 1
117 187 1
121 187 1
123 187 1
124 187 1
1 188 1
2 188 1
4 188 1
5 188 1
6 188 1
7 188 1
8 188 1
10 188 1
12 188 1
14 188 1
15 188 1
16 188 1
17 188 1
19 188 1
20 188 1
22 188 1
23 188 1
24 188 1
26 188 1
27 188 1
29 188 1
31 188 1
37 188 1
38 188 1
39 188 1
41 188 1
42 188 1
45 188 1
47 188 1
49 188 1
51 188 1
53 188 1
56 188 1
58 188 1
59 188 1
60 188 1
96 188 1
97 188 1
98 188 1
99 188 1
100 188 1
101 188 1
107 188 1
108 188 1
109 188 1
111 188 1
113 188 1
114 188 1
115 188 1
117 188 1
118 188 1
121 188 1
124 188 1
125 188 1
126 188 1
127 188 1
1 189 1
3 189 1
4 189 1
5 189 1
7 189 1
9 189 1
12 189 1
13 189 1
14 189 1
16 189 1
17 189 1
19 189 1
20 189 1
23 189 1
24 189 1
25 189 1
26 189 1
27 189 1
30 189 1
31 189 1
32 189 1
35 189 1
38 189 1
39 189 1
41 189 1
42 189 1
46 189 1
47 189 1
48 189 1
50 189 1
51 189 1
56 189 1
59 189 1
60 189 1
64 189 1
67 189 1
96 189 1
98 189 1
99 189 1
100 189 1
108 189 1
109 189 1
110 189 1
111 189 1
114 189 1
117 189 1
118 189 1
119 189 1
120 189 1
122 189 1
124 189 1
126 189 1
1 190 1
2 190 1
4 190 1
8 190 1
12 190 1
13 190 1
14 190 1
15 190 1
16 190 1
18 190 1
20 190 1
21 190 1
22 190 1
24 190 1
25 190 1
27 190 1
28 190 1
29 190 1
33 190 1
36 190 1
37 190 1
38 190 1
39 190 1
43 190 1
45 190 1
46 190 1
47 190 1
48 190 1
49 190 1
51 190 1
52 190 1
53 190 1
56 190 1
57 190 1
58 190 1
59 190 1
60 190 1
62 190 1
64 190 1
96 190 1
97 190 1
98 190 1
99 190 1
101 190 1
102 190 1
107 190 1
108 190 1
109 190 1
110 190 1
113 190 1
115 190 1
119 190 1
120 190 1
121 190 1
124 190 1
126 190 1
127 190 1
128 190 1
4 191 1
6 191 1
7 191 1
8 191 1
9 191 1
10 191 1
14 191 1
15 191 1
19 191 1
20 191 1
21 191 1
22 191 1
23 191 1
25 191 1
27 191 1
28 191 1
29 191 1
36 191 1
37 191 1
38 191 1
48 191 1
49 191 1
50 191 1
51 191 1
52 191 1
53 191 1
55 191 1
56 191 1
57 191 1
59 191 1
63 191 1
67 191 1
98 191 1
99 191 1
102 191 1
106 191 1
113 191 1
114 191 1
115 191 1
117 191 1
121 191 1
122 191 1
123 191 1
125 191 1
126 191 1
128 191 1
2 192 1
3 192 1
4 192 1
8 192 1
13 192 1
17 192 1
24 192 1
26 192 1
27 192 1
28 192 1
30 192 1
31 192 1
32 192 1
33 192 1
35 192 1
38 192 1
39 192 1
41 192 1
42 192 1
46 192 1
47 192 1
48 192 1
50 192 1
51 192 1
56 192 1
59 192 1
60 192 1
64 192 1
67 192 1
96 192 1
98 192 1
99 192 1
100 192 1
108 192 1
109 192 1
110 192 1
111 192 1
114 192 1
117 192 1
118 192 1
119 192 1
120 192 1
122 192 1
124 192 1
126 192 1
4 193 1
5 193 1
7 193 1
8 193 1
9 193 1
11 193 1
15 193 1
18 193 1
20 193 1
24 193 1
25 193 1
27 193 1
29 193 1
30 193 1
32 193 1
35 193 1
37 193 1
45 193 1
46 193 1
48 193 1
49 193 1
50 193 1
53 193 1
58 193 1
64 193 1
67 193 1
97 193 1
101 193 1
107 193 1
110 193 1
113 193 1
115 193 1
119 193 1
120 193 1
121 193 1
122 193 1
125 193 1
127 193 1
1 194 1
2 194 1
4 194 1
5 194 1
7 194 1
9 194 1
10 194 1
11 194 1
12 194 1
14 194 1
17 194 1
18 194 1
19 194 1
25 194 1
28 194 1
29 194 1
38 194 1
41 194 1
42 194 1
43 194 1
45 194 1
48 194 1
51 194 1
55 194 1
56 194 1
58 194 1
59 194 1
62 194 1
63 194 1
97 194 1
98 194 1
99 194 1
100 194 1
101 194 1
106 194 1
107 194 1
111 194 1
118 194 1
123 194 1
125 194 1
126 194 1
127 194 1
1 195 1
3 195 1
4 195 1
5 195 1
9 195 1
10 195 1
11 195 1
12 195 1
13 195 1
15 195 1
16 195 1
18 195 1
20 195 1
22 195 1
25 195 1
31 195 1
33 195 1
35 195 1
1 196 1
2 196 1
4 196 1
9 196 1
10 196 1
12 196 1
15 196 1
16 196 1
17 196 1
18 196 1
23 196 1
24 196 1
25 196 1
26 196 1
27 196 1
28 196 1
31 196 1
32 196 1
35 196 1
36 196 1
37 196 1
38 196 1
48 196 1
49 196 1
50 196 1
51 196 1
52 196 1
53 196 1
55 196 1
56 196 1
57 196 1
59 196 1
63 196 1
67 196 1
98 196 1
99 196 1
102 196 1
106 196 1
113 196 1
114 196 1
115 196 1
117 196 1
121 196 1
122 196 1
123 196 1
125 196 1
126 196 1
128 196 1
4 197 1
9 197 1
15 197 1
16 197 1
17 197 1
18 197 1
19 197 1
20 197 1
22 197 1
24 197 1
25 197 1
28 197 1
33 197 1
39 197 1
43 197 1
45 197 1
46 197 1
47 197 1
50 197 1
55 197 1
58 197 1
60 197 1
62 197 1
63 197 1
64 197 1
67 197 1
96 197 1
97 197 1
101 197 1
106 197 1
107 197 1
108 197 1
109 197 1
110 197 1
114 197 1
117 197 1
119 197 1
120 197 1
122 197 1
123 197 1
124 197 1
125 197 1
127 197 1
1 198 1
2 198 1
4 198 1
5 198 1
6 198 1
10 198 1
11 198 1
13 198 1
15 198 1
16 198 1
18 198 1
22 198 1
23 198 1
24 198 1
28 198 1
29 198 1
30 198 1
32 198 1
36 198 1
41 198 1
42 198 1
43 198 1
46 198 1
48 198 1
52 198 1
57 198 1
62 198 1
64 198 1
100 198 1
102 198 1
110 198 1
111 198 1
114 198 1
117 198 1
118 198 1
119 198 1
120 198 1
125 198 1
128 198 1
4 199 1
6 199 1
8 199 1
11 199 1
13 199 1
14 199 1
15 199 1
16 199 1
20 199 1
21 199 1
23 199 1
24 199 1
27 199 1
28 199 1
31 199 1
33 199 1
35 199 1
36 199 1
37 199 1
38 199 1
48 199 1
49 199 1
50 199 1
51 199 1
52 199 1
53 199 1
55 199 1
56 199 1
57 199 1
59 199 1
63 199 1
67 199 1
98 199 1
99 199 1
102 199 1
106 199 1
113 199 1
114 199 1
115 199 1
117 199 1
121 199 1
122 199 1
123 199 1
125 199 1
126 199 1
128 199 1
1 200 1
2 200 1
4 200 1
5 200 1
8 200 1
9 200 1
10 200 1
11 200 1
13 200 1
14 200 1
15 200 1
19 200 1
22 200 1
24 200 1
27 200 1
30 200 1
31 200 1
35 200 1
36 200 1
37 200 1
38 200 1
39 200 1
43 200 1
45 200 1
46 200 1
47 200 1
48 200 1
49 200 1
51 200 1
52 200 1
53 200 1
56 200 1
57 200 1
58 200 1
59 200 1
60 200 1
62 200 1
64 200 1
96 200 1
97 200 1
98 200 1
99 200 1
101 200 1
102 200 1
107 200 1
108 200 1
109 200 1
110 200 1
113 200 1
115 200 1
119 200 1
120 200 1
121 200 1
124 200 1
126 200 1
127 200 1
128 200 1
1 201 1
3 201 1
4 201 1
5 201 1
6 201 1
7 201 1
11 201 1
12 201 1
16 201 1
19 201 1
20 201 1
21 201 1
32 201 1
33 201 1
36 201 1
37 201 1
38 201 1
48 201 1
49 201 1
50 201 1
51 201 1
52 201 1
53 201 1
55 201 1
56 201 1
57 201 1
59 201 1
63 201 1
67 201 1
98 201 1
99 201 1
102 201 1
106 201 1
113 201 1
114 201 1
115 201 1
117 201 1
121 201 1
122 201 1
123 201 1
125 201 1
126 201 1
128 201 1
1 202 1
2 202 1
4 202 1
6 202 1
9 202 1
11 202 1
12 202 1
13 202 1
15 202 1
17 202 1
19 202 1
20 202 1
22 202 1
24 202 1
25 202 1
26 202 1
29 202 1
31 202 1
33 202 1
38 202 1
39 202 1
41 202 1
42 202 1
46 202 1
47 202 1
48 202 1
50 202 1
51 202 1
56 202 1
59 202 1
60 202 1
64 202 1
67 202 1
96 202 1
98 202 1
99 202 1
100 202 1
108 202 1
109 202 1
110 202 1
111 202 1
114 202 1
117 202 1
118 202 1
119 202 1
120 202 1
122 202 1
124 202 1
126 202 1
4 203 1
6 203 1
8 203 1
9 203 1
11 203 1
13 203 1
14 203 1
17 203 1
18 203 1
19 203 1
22 203 1
23 203 1
28 203 1
29 203 1
30 203 1
32 203 1
33 203 1
37 203 1
45 203 1
46 203 1
48 203 1
49 203 1
50 203 1
53 203 1
58 203 1
64 203 1
67 203 1
97 203 1
101 203 1
107 203 1
110 203 1
113 203 1
115 203 1
119 203 1
120 203 1
121 203 1
122 203 1
125 203 1
127 203 1
2 204 1
3 204 1
4 204 1
9 204 1
10 204 1
12 204 1
13 204 1
14 204 1
19 204 1
20 204 1
25 204 1
26 204 1
27 204 1
28 204 1
29 204 1
30 204 1
32 204 1
38 204 1
41 204 1
42 204 1
43 204 1
45 204 1
48 204 1
51 204 1
55 204 1
56 204 1
58 204 1
59 204 1
62 204 1
63 204 1
97 204 1
98 204 1
99 204 1
100 204 1
101 204 1
106 204 1
107 204 1
111 204 1
118 204 1
123 204 1
125 204 1
126 204 1
127 204 1
1 205 1
3 205 1
4 205 1
7 205 1
11 205 1
12 205 1
13 205 1
14 205 1
16 205 1
17 205 1
22 205 1
24 205 1
25 205 1
27 205 1
28 205 1
29 205 1
30 205 1
33 205 1
35 205 1
36 205 1
37 205 1
41 205 1
42 205 1
43 205 1
45 205 1
49 205 1
50 205 1
52 205 1
53 205 1
57 205 1
58 205 1
62 205 1
67 205 1
97 205 1
100 205 1
101 205 1
102 205 1
107 205 1
111 205 1
113 205 1
114 205 1
115 205 1
117 205 1
118 205 1
121 205 1
122 205 1
127 205 1
128 205 1
2 206 1
3 206 1
4 206 1
5 206 1
6 206 1
7 206 1
8 206 1
9 206 1
12 206 1
14 206 1
15 206 1
18 206 1
19 206 1
24 206 1
27 206 1
28 206 1
30 206 1
32 206 1
33 206 1
35 206 1
37 206 1
38 206 1
39 206 1
41 206 1
42 206 1
45 206 1
47 206 1
49 206 1
51 206 1
53 206 1
56 206 1
58 206 1
59 206 1
60 206 1
96 206 1
97 206 1
98 206 1
99 206 1
100 206 1
101 206 1
107 206 1
108 206 1
109 206 1
111 206 1
113 206 1
114 206 1
115 206 1
117 206 1
118 206 1
121 206 1
124 206 1
125 206 1
126 206 1
127 206 1
4 207 1
5 207 1
9 207 1
11 207 1
12 207 1
13 207 1
14 207 1
16 207 1
17 207 1
18 207 1
21 207 1
24 207 1
25 207 1
27 207 1
29 207 1
35 207 1
38 207 1
39 207 1
41 207 1
42 207 1
46 207 1
47 207 1
48 207 1
50 207 1
51 207 1
56 207 1
59 207 1
60 207 1
64 207 1
67 207 1
96 207 1
98 207 1
99 207 1
100 207 1
108 207 1
109 207 1
110 207 1
111 207 1
114 207 1
117 207 1
118 207 1
119 207 1
120 207 1
122 207 1
124 207 1
126 207 1
1 208 1
2 208 1
4 208 1
5 208 1
7 208 1
8 208 1
9 208 1
10 208 1
13 208 1
16 208 1
17 208 1
20 208 1
28 208 1
31 208 1
37 208 1
38 208 1
41 208 1
42 208 1
43 208 1
46 208 1
49 208 1
50 208 1
51 208 1
53 208 1
55 208 1
56 208 1
59 208 1
62 208 1
63 208 1
64 208 1
67 208 1
98 208 1
99 208 1
100 208 1
106 208 1
110 208 1
111 208 1
113 208 1
115 208 1
118 208 1
119 208 1
120 208 1
121 208 1
122 208 1
123 208 1
126 208 1
1 209 1
3 209 1
4 209 1
5 209 1
9 209 1
15 209 1
17 209 1
19 209 1
20 209 1
21 209 1
22 209 1
24 209 1
25 209 1
28 209 1
30 209 1
31 209 1
33 209 1
35 209 1
37 209 1
38 209 1
39 209 1
41 209 1
42 209 1
45 209 1
47 209 1
49 209 1
51 209 1
53 209 1
56 209 1
58 209 1
59 209 1
60 209 1
96 209 1
97 209 1
98 209 1
99 209 1
100 209 1
101 209 1
107 209 1
108 209 1
109 209 1
111 209 1
113 209 1
114 209 1
115 209 1
117 209 1
118 209 1
121 209 1
124 209 1
125 209 1
126 209 1
127 209 1
1 210 1
2 210 1
4 210 1
15 210 1
20 210 1
21 210 1
24 210 1
26 210 1
28 210 1
29 210 1
31 210 1
32 210 1
35 210 1
36 210 1
39 210 1
41 210 1
42 210 1
45 210 1
47 210 1
48 210 1
50 210 1
52 210 1
55 210 1
57 210 1
58 210 1
60 210 1
63 210 1
67 210 1
96 210 1
97 210 1
100 210 1
101 210 1
102 210 1
106 210 1
107 210 1
108 210 1
109 210 1
111 210 1
118 210 1
122 210 1
123 210 1
124 210 1
127 210 1
128 210 1
2 211 1
4 211 1
5 211 1
6 211 1
7 211 1
8 211 1
9 211 1
12 211 1
14 211 1
15 211 1
18 211 1
19 211 1
24 211 1
27 211 1
28 211 1
30 211 1
32 211 1
33 211 1
37 211 1
38 211 1
39 211 1
41 211 1
42 211 1
45 211 1
47 211 1
49 211 1
51 211 1
53 211 1
56 211 1
58 211 1
59 211 1
60 211 1
96 211 1
97 211 1
98 211 1
99 211 1
100 211 1
101 211 1
107 211 1
108 211 1
109 211 1
111 211 1
113 211 1
114 211 1
115 211 1
117 211 1
118 211 1
121 211 1
124 211 1
125 211 1
126 211 1
127 211 1
2 212 1
4 212 1
5 212 1
6 212 1
7 212 1
8 212 1
10 212 1
15 212 1
19 212 1
20 212 1
22 212 1
23 212 1
26 212 1
28 212 1
30 212 1
31 212 1
32 212 1
33 212 1
38 212 1
39 212 1
41 212 1
42 212 1
46 212 1
47 212 1
48 212 1
50 212 1
51 212 1
56 212 1
59 212 1
60 212 1
64 212 1
67 212 1
96 212 1
98 212 1
99 212 1
100 212 1
108 212 1
109 212 1
110 212 1
111 212 1
114 212 1
117 212 1
118 212 1
119 212 1
120 212 1
122 212 1
124 212 1
126 212 1
2 213 1
4 213 1
5 213 1
6 213 1
7 213 1
8 213 1
9 213 1
10 213 1
13 213 1
16 213 1
17 213 1
20 213 1
28 213 1
31 213 1
37 213 1
38 213 1
41 213 1
42 213 1
43 213 1
46 213 1
49 213 1
50 213 1
51 213 1
53 213 1
55 213 1
56 213 1
59 213 1
62 213 1
63 213 1
64 213 1
67 213 1
98 213 1
99 213 1
100 213 1
106 213 1
110 213 1
111 213 1
113 213 1
115 213 1
118 213 1
119 213 1
120 213 1
121 213 1
122 213 1
123 213 1
126 213 1
1 214 1
2 214 1
3 214 1
4 214 1
8 214 1
12 214 1
14 214 1
17 214 1
18 214 1
20 214 1
21 214 1
22 214 1
25 214 1
27 214 1
31 214 1
32 214 1
35 214 1
36 214 1
38 214 1
39 214 1
43 214 1
47 214 1
50 214 1
51 214 1
52 214 1
56 214 1
57 214 1
59 214 1
60 214 1
62 214 1
67 214 1
96 214 1
98 214 1
99 214 1
102 214 1
108 214 1
109 214 1
122 214 1
124 214 1
125 214 1
126 214 1
128 214 1
1 215 1
2 215 1
3 215 1
4 215 1
5 215 1
6 215 1
7 215 1
9 215 1
10 215 1
11 215 1
14 215 1
15 215 1
17 215 1
23 215 1
24 215 1
25 215 1
29 215 1
31 215 1
32 215 1
33 215 1
38 215 1
39 215 1
41 215 1
42 215 1
46 215 1
47 215 1
48 215 1
50 215 1
51 215 1
56 215 1
59 215 1
60 215 1
64 215 1
67 215 1
96 215 1
98 215 1
99 215 1
100 215 1
108 215 1
109 215 1
110 215 1
111 215 1
114 215 1
117 215 1
118 215 1
119 215 1
120 215 1
122 215 1
124 215 1
126 215 1
1 216 1
2 216 1
3 216 1
4 216 1
5 216 1
7 216 1
9 216 1
10 216 1
11 216 1
12 216 1
13 216 1
14 216 1
15 216 1
17 216 1
18 216 1
20 216 1
21 216 1
23 216 1
25 216 1
27 216 1
30 216 1
33 216 1
37 216 1
38 216 1
39 216 1
41 216 1
42 216 1
45 216 1
47 216 1
49 216 1
51 216 1
53 216 1
56 216 1
58 216 1
59 216 1
60 216 1
96 216 1
97 216 1
98 216 1
99 216 1
100 216 1
101 216 1
107 216 1
108 216 1
109 216 1
111 216 1
113 216 1
114 216 1
115 216 1
117 216 1
118 216 1
121 216 1
124 216 1
125 216 1
126 216 1
127 216 1
1 217 1
2 217 1
3 217 1
4 217 1
5 217 1
9 217 1
10 217 1
11 217 1
13 217 1
14 217 1
15 217 1
16 217 1
18 217 1
19 217 1
20 217 1
21 217 1
27 217 1
28 217 1
29 217 1
31 217 1
36 217 1
38 217 1
39 217 1
43 217 1
47 217 1
50 217 1
51 217 1
52 217 1
56 217 1
57 217 1
59 217 1
60 217 1
62 217 1
67 217 1
96 217 1
98 217 1
99 217 1
102 217 1
108 217 1
109 217 1
122 217 1
124 217 1
125 217 1
126 217 1
128 217 1
1 218 1
2 218 1
3 218 1
4 218 1
5 218 1
8 218 1
9 218 1
10 218 1
11 218 1
13 218 1
14 218 1
15 218 1
19 218 1
22 218 1
24 218 1
30 218 1
31 218 1
35 218 1
36 218 1
37 218 1
38 218 1
39 218 1
43 218 1
45 218 1
46 218 1
47 218 1
48 218 1
49 218 1
51 218 1
52 218 1
53 218 1
56 218 1
57 218 1
58 218 1
59 218 1
60 218 1
62 218 1
64 218 1
96 218 1
97 218 1
98 218 1
99 218 1
101 218 1
102 218 1
107 218 1
108 218 1
109 218 1
110 218 1
113 218 1
115 218 1
119 218 1
120 218 1
121 218 1
124 218 1
126 218 1
127 218 1
128 218 1
1 219 1
2 219 1
3 219 1
4 219 1
5 219 1
6 219 1
7 219 1
11 219 1
12 219 1
16 219 1
19 219 1
20 219 1
21 219 1
32 219 1
36 219 1
37 219 1
38 219 1
48 219 1
49 219 1
50 219 1
51 219 1
52 219 1
53 219 1
55 219 1
56 219 1
57 219 1
59 219 1
63 219 1
67 219 1
98 219 1
99 219 1
102 219 1
106 219 1
113 219 1
114 219 1
115 219 1
117 219 1
121 219 1
122 219 1
123 219 1
125 219 1
126 219 1
128 219 1
2 220 1
4 220 1
6 220 1
9 220 1
11 220 1
12 220 1
13 220 1
15 220 1
17 220 1
19 220 1
20 220 1
22 220 1
24 220 1
25 220 1
26 220 1
29 220 1
31 220 1
33 220 1
35 220 1
38 220 1
39 220 1
41 220 1
42 220 1
46 220 1
47 220 1
48 220 1
50 220 1
51 220 1
56 220 1
59 220 1
60 220 1
64 220 1
67 220 1
96 220 1
98 220 1
99 220 1
100 220 1
108 220 1
109 220 1
110 220 1
111 220 1
114 220 1
117 220 1
118 220 1
119 220 1
120 220 1
122 220 1
124 220 1
126 220 1
2 221 1
4 221 1
5 221 1
8 221 1
9 221 1
10 221 1
14 221 1
16 221 1
18 221 1
19 221 1
20 221 1
21 221 1
25 221 1
26 221 1
28 221 1
30 221 1
31 221 1
32 221 1
33 221 1
35 221 1
36 221 1
41 221 1
42 221 1
43 221 1
46 221 1
48 221 1
52 221 1
57 221 1
62 221 1
64 221 1
100 221 1
102 221 1
110 221 1
111 221 1
114 221 1
117 221 1
118 221 1
119 221 1
120 221 1
125 221 1
128 221 1
2 222 1
4 222 1
5 222 1
7 222 1
8 222 1
11 222 1
12 222 1
13 222 1
17 222 1
19 222 1
21 222 1
23 222 1
27 222 1
29 222 1
30 222 1
32 222 1
33 222 1
35 222 1
36 222 1
41 222 1
42 222 1
43 222 1
46 222 1
48 222 1
52 222 1
57 222 1
62 222 1
64 222 1
100 222 1
102 222 1
110 222 1
111 222 1
114 222 1
117 222 1
118 222 1
119 222 1
120 222 1
125 222 1
128 222 1
2 223 1
4 223 1
5 223 1
7 223 1
9 223 1
10 223 1
11 223 1
15 223 1
16 223 1
18 223 1
20 223 1
21 223 1
22 223 1
23 223 1
24 223 1
28 223 1
29 223 1
35 223 1
36 223 1
38 223 1
39 223 1
43 223 1
47 223 1
50 223 1
51 223 1
52 223 1
56 223 1
57 223 1
59 223 1
60 223 1
62 223 1
67 223 1
96 223 1
98 223 1
99 223 1
102 223 1
108 223 1
109 223 1
122 223 1
124 223 1
125 223 1
126 223 1
128 223 1
1 224 1
2 224 1
3 224 1
4 224 1
6 224 1
9 224 1
12 224 1
13 224 1
14 224 1
15 224 1
16 224 1
17 224 1
19 224 1
20 224 1
22 224 1
24 224 1
25 224 1
29 224 1
33 224 1
37 224 1
39 224 1
43 224 1
47 224 1
48 224 1
49 224 1
53 224 1
55 224 1
60 224 1
62 224 1
63 224 1
96 224 1
106 224 1
108 224 1
109 224 1
113 224 1
114 224 1
115 224 1
117 224 1
121 224 1
123 224 1
124 224 1
1 225 1
2 225 1
3 225 1
4 225 1
5 225 1
7 225 1
8 225 1
11 225 1
13 225 1
14 225 1
15 225 1
16 225 1
17 225 1
19 225 1
20 225 1
22 225 1
23 225 1
25 225 1
26 225 1
27 225 1
31 225 1
33 225 1
37 225 1
45 225 1
46 225 1
48 225 1
49 225 1
50 225 1
53 225 1
58 225 1
64 225 1
67 225 1
97 225 1
101 225 1
107 225 1
110 225 1
113 225 1
115 225 1
119 225 1
120 225 1
121 225 1
122 225 1
125 225 1
127 225 1
2 226 1
4 226 1
6 226 1
7 226 1
9 226 1
14 226 1
15 226 1
16 226 1
17 226 1
19 226 1
29 226 1
30 226 1
32 226 1
39 226 1
43 226 1
45 226 1
46 226 1
47 226 1
50 226 1
55 226 1
58 226 1
60 226 1
62 226 1
63 226 1
64 226 1
67 226 1
96 226 1
97 226 1
101 226 1
106 226 1
107 226 1
108 226 1
109 226 1
110 226 1
114 226 1
117 226 1
119 226 1
120 226 1
122 226 1
123 226 1
124 226 1
125 226 1
127 226 1
2 227 1
4 227 1
5 227 1
6 227 1
7 227 1
8 227 1
10 227 1
11 227 1
15 227 1
16 227 1
17 227 1
18 227 1
19 227 1
22 227 1
26 227 1
27 227 1
30 227 1
31 227 1
32 227 1
35 227 1
37 227 1
45 227 1
46 227 1
48 227 1
49 227 1
50 227 1
53 227 1
58 227 1
64 227 1
67 227 1
97 227 1
101 227 1
107 227 1
110 227 1
113 227 1
115 227 1
119 227 1
120 227 1
121 227 1
122 227 1
125 227 1
127 227 1
1 228 1
2 228 1
3 228 1
4 228 1
6 228 1
7 228 1
9 228 1
11 228 1
12 228 1
13 228 1
14 228 1
16 228 1
17 228 1
21 228 1
23 228 1
24 228 1
27 228 1
28 228 1
30 228 1
31 228 1
32 228 1
39 228 1
43 228 1
45 228 1
46 228 1
47 228 1
50 228 1
55 228 1
58 228 1
60 228 1
62 228 1
63 228 1
64 228 1
67 228 1
96 228 1
97 228 1
101 228 1
106 228 1
107 228 1
108 228 1
109 228 1
110 228 1
114 228 1
117 228 1
119 228 1
120 228 1
122 228 1
123 228 1
124 228 1
125 228 1
127 228 1
2 229 1
4 229 1
6 229 1
9 229 1
11 229 1
17 229 1
21 229 1
23 229 1
24 229 1
25 229 1
26 229 1
27 229 1
30 229 1
31 229 1
35 229 1
36 229 1
37 229 1
39 229 1
41 229 1
42 229 1
46 229 1
47 229 1
49 229 1
52 229 1
53 229 1
55 229 1
57 229 1
60 229 1
63 229 1
64 229 1
96 229 1
100 229 1
102 229 1
106 229 1
108 229 1
109 229 1
110 229 1
111 229 1
113 229 1
115 229 1
118 229 1
119 229 1
120 229 1
121 229 1
123 229 1
124 229 1
125 229 1
128 229 1
1 230 1
2 230 1
3 230 1
4 230 1
6 230 1
7 230 1
8 230 1
12 230 1
13 230 1
15 230 1
16 230 1
18 230 1
22 230 1
25 230 1
26 230 1
27 230 1
28 230 1
30 230 1
32 230 1
37 230 1
39 230 1
43 230 1
47 230 1
48 230 1
49 230 1
53 230 1
55 230 1
60 230 1
62 230 1
63 230 1
96 230 1
106 230 1
108 230 1
109 230 1
113 230 1
114 230 1
115 230 1
117 230 1
121 230 1
123 230 1
124 230 1
1 231 1
2 231 1
3 231 1
4 231 1
5 231 1
7 231 1
14 231 1
16 231 1
21 231 1
22 231 1
25 231 1
26 231 1
28 231 1
29 231 1
32 231 1
35 231 1
37 231 1
38 231 1
39 231 1
41 231 1
42 231 1
45 231 1
47 231 1
49 231 1
51 231 1
53 231 1
56 231 1
58 231 1
59 231 1
60 231 1
96 231 1
97 231 1
98 231 1
99 231 1
100 231 1
101 231 1
107 231 1
108 231 1
109 231 1
111 231 1
113 231 1
114 231 1
115 231 1
117 231 1
118 231 1
121 231 1
124 231 1
125 231 1
126 231 1
127 231 1
2 232 1
4 232 1
8 232 1
13 232 1
14 232 1
18 232 1
19 232 1
23 232 1
24 232 1
26 232 1
30 232 1
38 232 1
41 232 1
42 232 1
43 232 1
45 232 1
48 232 1
51 232 1
55 232 1
56 232 1
58 232 1
59 232 1
62 232 1
63 232 1
97 232 1
98 232 1
99 232 1
100 232 1
101 232 1
106 232 1
107 232 1
111 232 1
118 232 1
123 232 1
125 232 1
126 232 1
127 232 1
1 233 1
2 233 1
3 233 1
4 233 1
7 233 1
9 233 1
12 233 1
13 233 1
14 233 1
15 233 1
19 233 1
23 233 1
25 233 1
29 233 1
30 233 1
31 233 1
35 233 1
38 233 1
41 233 1
42 233 1
43 233 1
45 233 1
48 233 1
51 233 1
55 233 1
56 233 1
58 233 1
59 233 1
62 233 1
63 233 1
97 233 1
98 233 1
99 233 1
100 233 1
101 233 1
106 233 1
107 233 1
111 233 1
118 233 1
123 233 1
125 233 1
126 233 1
127 233 1
2 234 1
4 234 1
8 234 1
12 234 1
13 234 1
15 234 1
16 234 1
19 234 1
21 234 1
22 234 1
23 234 1
24 234 1
25 234 1
27 234 1
29 234 1
31 234 1
32 234 1
37 234 1
38 234 1
39 234 1
41 234 1
42 234 1
45 234 1
47 234 1
49 234 1
51 234 1
53 234 1
56 234 1
58 234 1
59 234 1
60 234 1
96 234 1
97 234 1
98 234 1
99 234 1
100 234 1
101 234 1
107 234 1
108 234 1
109 234 1
111 234 1
113 234 1
114 234 1
115 234 1
117 234 1
118 234 1
121 234 1
124 234 1
125 234 1
126 234 1
127 234 1
2 235 1
4 235 1
5 235 1
6 235 1
10 235 1
12 235 1
13 235 1
17 235 1
18 235 1
19 235 1
20 235 1
23 235 1
24 235 1
25 235 1
27 235 1
29 235 1
31 235 1
32 235 1
33 235 1
35 235 1
36 235 1
37 235 1
38 235 1
48 235 1
49 235 1
50 235 1
51 235 1
52 235 1
53 235 1
55 235 1
56 235 1
57 235 1
59 235 1
63 235 1
67 235 1
98 235 1
99 235 1
102 235 1
106 235 1
113 235 1
114 235 1
115 235 1
117 235 1
121 235 1
122 235 1
123 235 1
125 235 1
126 235 1
128 235 1
2 236 1
4 236 1
5 236 1
8 236 1
15 236 1
16 236 1
17 236 1
18 236 1
19 236 1
20 236 1
21 236 1
22 236 1
25 236 1
28 236 1
30 236 1
35 236 1
36 236 1
41 236 1
42 236 1
43 236 1
46 236 1
48 236 1
52 236 1
57 236 1
62 236 1
64 236 1
100 236 1
102 236 1
110 236 1
111 236 1
114 236 1
117 236 1
118 236 1
119 236 1
120 236 1
125 236 1
128 236 1
1 237 1
2 237 1
3 237 1
4 237 1
6 237 1
8 237 1
10 237 1
11 237 1
12 237 1
13 237 1
14 237 1
16 237 1
17 237 1
19 237 1
21 237 1
23 237 1
25 237 1
28 237 1
33 237 1
37 237 1
38 237 1
41 237 1
42 237 1
43 237 1
46 237 1
49 237 1
50 237 1
51 237 1
53 237 1
55 237 1
56 237 1
59 237 1
62 237 1
63 237 1
64 237 1
67 237 1
98 237 1
99 237 1
100 237 1
106 237 1
110 237 1
111 237 1
113 237 1
115 237 1
118 237 1
119 237 1
120 237 1
121 237 1
122 237 1
123 237 1
126 237 1
1 238 1
2 238 1
3 238 1
4 238 1
5 238 1
7 238 1
8 238 1
9 238 1
10 238 1
13 238 1
16 238 1
17 238 1
20 238 1
28 238 1
31 238 1
33 238 1
37 238 1
38 238 1
41 238 1
42 238 1
43 238 1
46 238 1
49 238 1
50 238 1
51 238 1
53 238 1
55 238 1
56 238 1
59 238 1
62 238 1
63 238 1
64 238 1
67 238 1
98 238 1
99 238 1
100 238 1
106 238 1
110 238 1
111 238 1
113 238 1
115 238 1
118 238 1
119 238 1
120 238 1
121 238 1
122 238 1
123 238 1
126 238 1
2 239 1
4 239 1
6 239 1
7 239 1
10 239 1
13 239 1
16 239 1
17 239 1
19 239 1
21 239 1
22 239 1
24 239 1
26 239 1
27 239 1
29 239 1
30 239 1
33 239 1
36 239 1
37 239 1
39 239 1
41 239 1
42 239 1
46 239 1
47 239 1
49 239 1
52 239 1
53 239 1
55 239 1
57 239 1
60 239 1
63 239 1
64 239 1
96 239 1
100 239 1
102 239 1
106 239 1
108 239 1
109 239 1
110 239 1
111 239 1
113 239 1
115 239 1
118 239 1
119 239 1
120 239 1
121 239 1
123 239 1
124 239 1
125 239 1
128 239 1
2 240 1
4 240 1
5 240 1
6 240 1
7 240 1
8 240 1
9 240 1
10 240 1
11 240 1
12 240 1
13 240 1
14 240 1
16 240 1
17 240 1
18 240 1
19 240 1
22 240 1
23 240 1
25 240 1
27 240 1
30 240 1
33 240 1
36 240 1
39 240 1
41 240 1
42 240 1
45 240 1
47 240 1
48 240 1
50 240 1
52 240 1
55 240 1
57 240 1
58 240 1
60 240 1
63 240 1
67 240 1
96 240 1
97 240 1
100 240 1
101 240 1
102 240 1
106 240 1
107 240 1
108 240 1
109 240 1
111 240 1
118 240 1
122 240 1
123 240 1
124 240 1
127 240 1
128 240 1
2 241 1
5 241 1
7 241 1
8 241 1
9 241 1
12 241 1
14 241 1
15 241 1
18 241 1
19 241 1
24 241 1
27 241 1
28 241 1
30 241 1
32 241 1
33 241 1
36 241 1
37 241 1
41 241 1
42 241 1
43 241 1
45 241 1
49 241 1
50 241 1
52 241 1
53 241 1
57 241 1
58 241 1
62 241 1
67 241 1
97 241 1
100 241 1
101 241 1
102 241 1
107 241 1
111 241 1
113 241 1
114 241 1
115 241 1
117 241 1
118 241 1
121 241 1
122 241 1
127 241 1
128 241 1
3 242 1
5 242 1
6 242 1
7 242 1
8 242 1
9 242 1
10 242 1
11 242 1
14 242 1
17 242 1
20 242 1
21 242 1
23 242 1
25 242 1
26 242 1
28 242 1
33 242 1
35 242 1
36 242 1
38 242 1
45 242 1
46 242 1
51 242 1
52 242 1
55 242 1
56 242 1
57 242 1
58 242 1
59 242 1
63 242 1
64 242 1
97 242 1
98 242 1
99 242 1
101 242 1
102 242 1
106 242 1
107 242 1
110 242 1
114 242 1
117 242 1
119 242 1
120 242 1
123 242 1
126 242 1
127 242 1
128 242 1
1 243 1
2 243 1
3 243 1
5 243 1
7 243 1
9 243 1
10 243 1
12 243 1
13 243 1
14 243 1
15 243 1
17 243 1
18 243 1
20 243 1
21 243 1
23 243 1
25 243 1
27 243 1
30 243 1
33 243 1
37 243 1
38 243 1
39 243 1
41 243 1
42 243 1
45 243 1
47 243 1
49 243 1
51 243 1
53 243 1
56 243 1
58 243 1
59 243 1
60 243 1
96 243 1
97 243 1
98 243 1
99 243 1
100 243 1
101 243 1
107 243 1
108 243 1
109 243 1
111 243 1
113 243 1
114 243 1
115 243 1
117 243 1
118 243 1
121 243 1
124 243 1
125 243 1
126 243 1
127 243 1
1 244 1
5 244 1
7 244 1
13 244 1
16 244 1
17 244 1
18 244 1
20 244 1
22 244 1
25 244 1
27 244 1
28 244 1
29 244 1
30 244 1
32 244 1
35 244 1
38 244 1
41 244 1
42 244 1
43 244 1
45 244 1
48 244 1
51 244 1
55 244 1
56 244 1
58 244 1
59 244 1
62 244 1
63 244 1
97 244 1
98 244 1
99 244 1
100 244 1
101 244 1
106 244 1
107 244 1
111 244 1
118 244 1
123 244 1
125 244 1
126 244 1
127 244 1
2 245 1
5 245 1
6 245 1
8 245 1
10 245 1
11 245 1
12 245 1
13 245 1
16 245 1
18 245 1
19 245 1
21 245 1
22 245 1
23 245 1
24 245 1
25 245 1
27 245 1
28 245 1
33 245 1
35 245 1
36 245 1
37 245 1
38 245 1
48 245 1
49 245 1
50 245 1
51 245 1
52 245 1
53 245 1
55 245 1
56 245 1
57 245 1
59 245 1
63 245 1
67 245 1
98 245 1
99 245 1
102 245 1
106 245 1
113 245 1
114 245 1
115 245 1
117 245 1
121 245 1
122 245 1
123 245 1
125 245 1
126 245 1
128 245 1
1 246 1
6 246 1
8 246 1
13 246 1
14 246 1
15 246 1
19 246 1
20 246 1
28 246 1
29 246 1
30 246 1
31 246 1
32 246 1
37 246 1
38 246 1
39 246 1
41 246 1
42 246 1
45 246 1
47 246 1
49 246 1
51 246 1
53 246 1
56 246 1
58 246 1
59 246 1
60 246 1
96 246 1
97 246 1
98 246 1
99 246 1
100 246 1
101 246 1
107 246 1
108 246 1
109 246 1
111 246 1
113 246 1
114 246 1
115 246 1
117 246 1
118 246 1
121 246 1
124 246 1
125 246 1
126 246 1
127 246 1
1 247 1
2 247 1
3 247 1
6 247 1
7 247 1
8 247 1
10 247 1
11 247 1
16 247 1
18 247 1
20 247 1
21 247 1
24 247 1
25 247 1
26 247 1
27 247 1
28 247 1
32 247 1
33 247 1
36 247 1
37 247 1
38 247 1
48 247 1
49 247 1
50 247 1
51 247 1
52 247 1
53 247 1
55 247 1
56 247 1
57 247 1
59 247 1
63 247 1
67 247 1
98 247 1
99 247 1
102 247 1
106 247 1
113 247 1
114 247 1
115 247 1
117 247 1
121 247 1
122 247 1
123 247 1
125 247 1
126 247 1
128 247 1
3 248 1
6 248 1
7 248 1
9 248 1
11 248 1
12 248 1
13 248 1
14 248 1
16 248 1
17 248 1
20 248 1
23 248 1
26 248 1
27 248 1
29 248 1
30 248 1
35 248 1
36 248 1
41 248 1
42 248 1
43 248 1
46 248 1
48 248 1
52 248 1
57 248 1
62 248 1
64 248 1
100 248 1
102 248 1
110 248 1
111 248 1
114 248 1
117 248 1
118 248 1
119 248 1
120 248 1
125 248 1
128 248 1
2 249 1
6 249 1
9 249 1
11 249 1
14 249 1
17 249 1
21 249 1
23 249 1
24 249 1
25 249 1
26 249 1
27 249 1
30 249 1
31 249 1
35 249 1
36 249 1
37 249 1
39 249 1
41 249 1
42 249 1
46 249 1
47 249 1
49 249 1
52 249 1
53 249 1
55 249 1
57 249 1
60 249 1
63 249 1
64 249 1
96 249 1
100 249 1
102 249 1
106 249 1
108 249 1
109 249 1
110 249 1
111 249 1
113 249 1
115 249 1
118 249 1
119 249 1
120 249 1
121 249 1
123 249 1
124 249 1
125 249 1
128 249 1
1 250 1
6 250 1
8 250 1
9 250 1
11 250 1
12 250 1
14 250 1
16 250 1
17 250 1
18 250 1
19 250 1
21 250 1
26 250 1
27 250 1
28 250 1
31 250 1
35 250 1
36 250 1
37 250 1
41 250 1
42 250 1
43 250 1
45 250 1
49 250 1
50 250 1
52 250 1
53 250 1
57 250 1
58 250 1
62 250 1
67 250 1
97 250 1
100 250 1
101 250 1
102 250 1
107 250 1
111 250 1
113 250 1
114 250 1
115 250 1
117 250 1
118 250 1
121 250 1
122 250 1
127 250 1
128 250 1
2 251 1
5 251 1
6 251 1
7 251 1
15 251 1
18 251 1
22 251 1
23 251 1
26 251 1
27 251 1
29 251 1
30 251 1
31 251 1
32 251 1
33 251 1
35 251 1
37 251 1
38 251 1
41 251 1
42 251 1
43 251 1
46 251 1
49 251 1
50 251 1
51 251 1
53 251 1
55 251 1
56 251 1
59 251 1
62 251 1
63 251 1
64 251 1
67 251 1
98 251 1
99 251 1
100 251 1
106 251 1
110 251 1
111 251 1
113 251 1
115 251 1
118 251 1
119 251 1
120 251 1
121 251 1
122 251 1
123 251 1
126 251 1
3 252 1
5 252 1
7 252 1
11 252 1
12 252 1
18 252 1
19 252 1
21 252 1
23 252 1
24 252 1
26 252 1
28 252 1
29 252 1
31 252 1
36 252 1
38 252 1
39 252 1
43 252 1
47 252 1
50 252 1
51 252 1
52 252 1
56 252 1
57 252 1
59 252 1
60 252 1
62 252 1
67 252 1
96 252 1
98 252 1
99 252 1
102 252 1
108 252 1
109 252 1
122 252 1
124 252 1
125 252 1
126 252 1
128 252 1
2 253 1
8 253 1
10 253 1
16 253 1
17 253 1
21 253 1
22 253 1
23 253 1
25 253 1
27 253 1
28 253 1
30 253 1
32 253 1
36 253 1
37 253 1
38 253 1
39 253 1
43 253 1
45 253 1
46 253 1
47 253 1
48 253 1
49 253 1
51 253 1
52 253 1
53 253 1
56 253 1
57 253 1
58 253 1
59 253 1
60 253 1
62 253 1
64 253 1
96 253 1
97 253 1
98 253 1
99 253 1
101 253 1
102 253 1
107 253 1
108 253 1
109 253 1
110 253 1
113 253 1
115 253 1
119 253 1
120 253 1
121 253 1
124 253 1
126 253 1
127 253 1
128 253 1
3 254 1
5 254 1
6 254 1
7 254 1
10 254 1
11 254 1
13 254 1
15 254 1
16 254 1
18 254 1
22 254 1
24 254 1
28 254 1
33 254 1
37 254 1
38 254 1
39 254 1
41 254 1
42 254 1
45 254 1
47 254 1
49 254 1
51 254 1
53 254 1
56 254 1
58 254 1
59 254 1
60 254 1
96 254 1
97 254 1
98 254 1
99 254 1
100 254 1
101 254 1
107 254 1
108 254 1
109 254 1
111 254 1
113 254 1
114 254 1
115 254 1
117 254 1
118 254 1
121 254 1
124 254 1
125 254 1
126 254 1
127 254 1
2 255 1
7 255 1
8 255 1
9 255 1
10 255 1
12 255 1
14 255 1
17 255 1
18 255 1
23 255 1
26 255 1
27 255 1
35 255 1
36 255 1
38 255 1
39 255 1
43 255 1
47 255 1
50 255 1
51 255 1
52 255 1
56 255 1
57 255 1
59 255 1
60 255 1
62 255 1
67 255 1
96 255 1
98 255 1
99 255 1
102 255 1
108 255 1
109 255 1
122 255 1
124 255 1
125 255 1
126 255 1
128 255 1
1 256 1
6 256 1
7 256 1
10 256 1
12 256 1
14 256 1
18 256 1
19 256 1
21 256 1
23 256 1
24 256 1
25 256 1
26 256 1
27 256 1
28 256 1
29 256 1
30 256 1
31 256 1
35 256 1
36 256 1
37 256 1
38 256 1
39 256 1
43 256 1
45 256 1
46 256 1
47 256 1
48 256 1
49 256 1
51 256 1
52 256 1
53 256 1
56 256 1
57 256 1
58 256 1
59 256 1
60 256 1
62 256 1
64 256 1
96 256 1
97 256 1
98 256 1
99 256 1
101 256 1
102 256 1
107 256 1
108 256 1
109 256 1
110 256 1
113 256 1
115 256 1
119 256 1
120 256 1
121 256 1
124 256 1
126 256 1
127 256 1
128 256 1
2 257 1
5 257 1
6 257 1
7 257 1
8 257 1
9 257 1
10 257 1
11 257 1
20 257 1
24 257 1
26 257 1
27 257 1
28 257 1
30 257 1
31 257 1
32 257 1
33 257 1
35 257 1
37 257 1
39 257 1
43 257 1
47 257 1
48 257 1
49 257 1
53 257 1
55 257 1
60 257 1
62 257 1
63 257 1
96 257 1
106 257 1
108 257 1
109 257 1
113 257 1
114 257 1
115 257 1
117 257 1
121 257 1
123 257 1
124 257 1
3 258 1
5 258 1
7 258 1
9 258 1
10 258 1
12 258 1
14 258 1
15 258 1
17 258 1
18 258 1
21 258 1
22 258 1
24 258 1
27 258 1
29 258 1
31 258 1
36 258 1
39 258 1
41 258 1
42 258 1
45 258 1
47 258 1
48 258 1
50 258 1
52 258 1
55 258 1
57 258 1
58 258 1
60 258 1
63 258 1
67 258 1
96 258 1
97 258 1
100 258 1
101 258 1
102 258 1
106 258 1
107 258 1
108 258 1
109 258 1
111 258 1
118 258 1
122 258 1
123 258 1
124 258 1
127 258 1
128 258 1
2 259 1
8 259 1
9 259 1
13 259 1
14 259 1
15 259 1
16 259 1
17 259 1
20 259 1
23 259 1
25 259 1
26 259 1
28 259 1
30 259 1
33 259 1
38 259 1
39 259 1
41 259 1
42 259 1
46 259 1
47 259 1
48 259 1
50 259 1
51 259 1
56 259 1
59 259 1
60 259 1
64 259 1
67 259 1
96 259 1
98 259 1
99 259 1
100 259 1
108 259 1
109 259 1
110 259 1
111 259 1
114 259 1
117 259 1
118 259 1
119 259 1
120 259 1
122 259 1
124 259 1
126 259 1
3 260 1
5 260 1
6 260 1
7 260 1
9 260 1
10 260 1
11 260 1
12 260 1
14 260 1
16 260 1
18 260 1
19 260 1
22 260 1
24 260 1
25 260 1
26 260 1
28 260 1
31 260 1
32 260 1
35 260 1
36 260 1
38 260 1
45 260 1
46 260 1
51 260 1
52 260 1
55 260 1
56 260 1
57 260 1
58 260 1
59 260 1
63 260 1
64 260 1
97 260 1
98 260 1
99 260 1
101 260 1
102 260 1
106 260 1
107 260 1
110 260 1
114 260 1
117 260 1
119 260 1
120 260 1
123 260 1
126 260 1
127 260 1
128 260 1
2 261 1
6 261 1
11 261 1
12 261 1
14 261 1
19 261 1
20 261 1
22 261 1
25 261 1
28 261 1
29 261 1
33 261 1
35 261 1
36 261 1
39 261 1
41 261 1
42 261 1
45 261 1
47 261 1
48 261 1
50 261 1
52 261 1
55 261 1
57 261 1
58 261 1
60 261 1
63 261 1
67 261 1
96 261 1
97 261 1
100 261 1
101 261 1
102 261 1
106 261 1
107 261 1
108 261 1
109 261 1
111 261 1
118 261 1
122 261 1
123 261 1
124 261 1
127 261 1
128 261 1
1 262 1
6 262 1
8 262 1
9 262 1
11 262 1
12 262 1
14 262 1
15 262 1
17 262 1
18 262 1
20 262 1
22 262 1
23 262 1
25 262 1
29 262 1
30 262 1
31 262 1
32 262 1
33 262 1
39 262 1
43 262 1
45 262 1
46 262 1
47 262 1
50 262 1
55 262 1
58 262 1
60 262 1
62 262 1
63 262 1
64 262 1
67 262 1
96 262 1
97 262 1
101 262 1
106 262 1
107 262 1
108 262 1
109 262 1
110 262 1
114 262 1
117 262 1
119 262 1
120 262 1
122 262 1
123 262 1
124 262 1
125 262 1
127 262 1
1 263 1
2 263 1
3 263 1
6 263 1
7 263 1
8 263 1
11 263 1
12 263 1
15 263 1
17 263 1
18 263 1
22 263 1
25 263 1
28 263 1
32 263 1
33 263 1
35 263 1
37 263 1
38 263 1
41 263 1
42 263 1
43 263 1
46 263 1
49 263 1
50 263 1
51 263 1
53 263 1
55 263 1
56 263 1
59 263 1
62 263 1
63 263 1
64 263 1
67 263 1
98 263 1
99 263 1
100 263 1
106 263 1
110 263 1
111 263 1
113 263 1
115 263 1
118 263 1
119 263 1
120 263 1
121 263 1
122 263 1
123 263 1
126 263 1
3 264 1
8 264 1
9 264 1
10 264 1
14 264 1
15 264 1
16 264 1
20 264 1
21 264 1
22 264 1
23 264 1
24 264 1
26 264 1
28 264 1
31 264 1
37 264 1
39 264 1
43 264 1
47 264 1
48 264 1
49 264 1
53 264 1
55 264 1
60 264 1
62 264 1
63 264 1
96 264 1
106 264 1
108 264 1
109 264 1
113 264 1
114 264 1
115 264 1
117 264 1
121 264 1
123 264 1
124 264 1
1 265 1
2 265 1
3 265 1
5 265 1
6 265 1
7 265 1
10 265 1
11 265 1
14 265 1
16 265 1
18 265 1
19 265 1
20 265 1
22 265 1
23 265 1
28 265 1
29 265 1
30 265 1
31 265 1
32 265 1
38 265 1
41 265 1
42 265 1
43 265 1
45 265 1
48 265 1
51 265 1
55 265 1
56 265 1
58 265 1
59 265 1
62 265 1
63 265 1
97 265 1
98 265 1
99 265 1
100 265 1
101 265 1
106 265 1
107 265 1
111 265 1
118 265 1
123 265 1
125 265 1
126 265 1
127 265 1
3 266 1
6 266 1
7 266 1
9 266 1
12 266 1
14 266 1
16 266 1
17 266 1
20 266 1
21 266 1
22 266 1
24 266 1
25 266 1
27 266 1
28 266 1
32 266 1
33 266 1
36 266 1
37 266 1
38 266 1
39 266 1
43 266 1
45 266 1
46 266 1
47 266 1
48 266 1
49 266 1
51 266 1
52 266 1
53 266 1
56 266 1
57 266 1
58 266 1
59 266 1
60 266 1
62 266 1
64 266 1
96 266 1
97 266 1
98 266 1
99 266 1
101 266 1
102 266 1
107 266 1
108 266 1
109 266 1
110 266 1
113 266 1
115 266 1
119 266 1
120 266 1
121 266 1
124 266 1
126 266 1
127 266 1
128 266 1
1 267 1
2 267 1
3 267 1
5 267 1
6 267 1
8 267 1
9 267 1
10 267 1
18 267 1
19 267 1
23 267 1
24 267 1
28 267 1
29 267 1
33 267 1
35 267 1
37 267 1
39 267 1
43 267 1
47 267 1
48 267 1
49 267 1
53 267 1
55 267 1
60 267 1
62 267 1
63 267 1
96 267 1
106 267 1
108 267 1
109 267 1
113 267 1
114 267 1
115 267 1
117 267 1
121 267 1
123 267 1
124 267 1
3 268 1
2 269 1
1 270 1
6 271 1
7 272 1
8 273 1
11 274 1
10 275 1
9 276 1
15 277 1
14 278 1
13 279 1
12 280 1
16 281 1
18 282 1
17 283 1
20 284 1
19 285 1
21 286 1
25 287 1
24 288 1
23 289 1
22 290 1
26 291 1
32 292 1
31 293 1
30 294 1
29 295 1
28 296 1
27 297 1
33 298 1
35 299 1
6 300 1
7 300 1
8 300 1
9 300 1
10 300 1
11 300 1
12 300 1
13 300 1
14 300 1
15 300 1
16 300 1
17 300 1
18 300 1
19 300 1
20 300 1
21 300 1
22 300 1
23 300 1
24 300 1
25 300 1
26 300 1
27 300 1
28 300 1
29 300 1
30 300 1
31 300 1
32 300 1
33 300 1
35 300 1
34 301 1
36 302 1
37 303 1
39 304 1
40 305 1
38 306 1
43 307 1
48 308 1
45 309 1
47 310 1
42 311 1
46 312 1
49 313 1
41 314 1
50 315 1
44 316 1
52 317 1
53 318 1
56 319 1
51 320 1
54 321 1
57 322 1
58 323 1
55 324 1
60 325 1
61 326 1
59 327 1
62 328 1
64 329 1
67 330 1
97 331 1
63 332 1
98 333 1
96 334 1
99 335 1
100 336 1
101 337 1
102 338 1
107 339 1
104 340 1
105 341 1
103 342 1
106 343 1
108 344 1
112 345 1
109 346 1
111 347 1
110 348 1
115 349 1
114 350 1
113 351 1
116 352 1
117 353 1
120 354 1
119 355 1
121 356 1
118 357 1
122 358 1
34 359 1
36 359 1
38 359 1
41 359 1
44 359 1
46 359 1
47 359 1
48 359 1
49 359 1
52 359 1
54 359 1
57 359 1
59 359 1
64 359 1
99 359 1
100 359 1
101 359 1
102 359 1
109 359 1
110 359 1
114 359 1
115 359 1
116 359 1
118 359 1
119 359 1
121 359 1
125 359 1
126 359 1
123 361 1
124 362 1
36 363 1
37 363 1
39 363 1
40 363 1
43 363 1
48 363 1
49 363 1
50 363 1
52 363 1
53 363 1
56 363 1
57 363 1
58 363 1
60 363 1
61 363 1
62 363 1
64 363 1
67 363 1
97 363 1
98 363 1
99 363 1
100 363 1
101 363 1
102 363 1
107 363 1
108 363 1
112 363 1
115 363 1
116 363 1
117 363 1
120 363 1
121 363 1
122 363 1
124 363 1
127 363 1
128 363 1
126 364 1
128 365 1
125 366 1
127 367 1
36 368 1
37 368 1
38 368 1
43 368 1
45 368 1
46 368 1
47 368 1
49 368 1
52 368 1
53 368 1
54 368 1
56 368 1
57 368 1
59 368 1
60 368 1
62 368 1
64 368 1
67 368 1
96 368 1
99 368 1
100 368 1
101 368 1
104 368 1
106 368 1
108 368 1
110 368 1
113 368 1
114 368 1
115 368 1
117 368 1
121 368 1
123 368 1
124 368 1
125 368 1
126 368 1
127 368 1
34 369 1
37 369 1
39 369 1
40 369 1
43 369 1
45 369 1
47 369 1
48 369 1
49 369 1
53 369 1
54 369 1
57 369 1
60 369 1
62 369 1
101 369 1
104 369 1
105 369 1
106 369 1
107 369 1
109 369 1
111 369 1
114 369 1
115 369 1
117 369 1
119 369 1
120 369 1
123 369 1
125 369 1
127 369 1
37 370 1
38 370 1
39 370 1
40 370 1
45 370 1
46 370 1
49 370 1
51 370 1
52 370 1
53 370 1
54 370 1
55 370 1
56 370 1
60 370 1
61 370 1
63 370 1
67 370 1
96 370 1
97 370 1
98 370 1
102 370 1
103 370 1
105 370 1
107 370 1
115 370 1
117 370 1
118 370 1
119 370 1
120 370 1
127 370 1
34 371 1
36 371 1
38 371 1
39 371 1
40 371 1
42 371 1
43 371 1
45 371 1
49 371 1
50 371 1
52 371 1
53 371 1
55 371 1
56 371 1
59 371 1
61 371 1
97 371 1
99 371 1
101 371 1
103 371 1
106 371 1
107 371 1
108 371 1
111 371 1
117 371 1
118 371 1
121 371 1
124 371 1
125 371 1
127 371 1
36 372 1
39 372 1
41 372 1
43 372 1
44 372 1
46 372 1
48 372 1
49 372 1
51 372 1
54 372 1
56 372 1
60 372 1
61 372 1
62 372 1
63 372 1
64 372 1
67 372 1
96 372 1
97 372 1
98 372 1
100 372 1
101 372 1
108 372 1
110 372 1
114 372 1
115 372 1
116 372 1
118 372 1
119 372 1
120 372 1
121 372 1
122 372 1
123 372 1
126 372 1
128 372 1
39 373 1
40 373 1
43 373 1
44 373 1
48 373 1
49 373 1
50 373 1
52 373 1
53 373 1
56 373 1
57 373 1
58 373 1
59 373 1
60 373 1
61 373 1
62 373 1
63 373 1
64 373 1
67 373 1
97 373 1
99 373 1
100 373 1
101 373 1
102 373 1
107 373 1
108 373 1
112 373 1
115 373 1
116 373 1
117 373 1
119 373 1
120 373 1
121 373 1
122 373 1
127 373 1
36 374 1
40 374 1
43 374 1
48 374 1
49 374 1
50 374 1
53 374 1
56 374 1
57 374 1
58 374 1
60 374 1
61 374 1
64 374 1
67 374 1
96 374 1
99 374 1
100 374 1
101 374 1
102 374 1
107 374 1
108 374 1
112 374 1
115 374 1
116 374 1
117 374 1
120 374 1
122 374 1
124 374 1
125 374 1
126 374 1
127 374 1
128 374 1
39 375 1
40 375 1
53 375 1
63 375 1
64 375 1
96 375 1
99 375 1
118 375 1
126 375 1
127 375 1
128 375 1
36 376 1
37 376 1
40 376 1
43 376 1
45 376 1
46 376 1
47 376 1
49 376 1
52 376 1
53 376 1
54 376 1
57 376 1
59 376 1
60 376 1
62 376 1
64 376 1
96 376 1
98 376 1
101 376 1
104 376 1
106 376 1
108 376 1
110 376 1
113 376 1
114 376 1
115 376 1
117 376 1
121 376 1
122 376 1
123 376 1
124 376 1
126 376 1
127 376 1
128 376 1
34 377 1
40 377 1
42 377 1
44 377 1
45 377 1
47 377 1
49 377 1
51 377 1
55 377 1
57 377 1
59 377 1
62 377 1
63 377 1
99 377 1
100 377 1
101 377 1
104 377 1
105 377 1
107 377 1
108 377 1
109 377 1
113 377 1
115 377 1
116 377 1
117 377 1
119 377 1
124 377 1
126 377 1
128 377 1
39 378 1
40 378 1
47 378 1
48 378 1
51 378 1
54 378 1
55 378 1
57 378 1
59 378 1
61 378 1
62 378 1
63 378 1
64 378 1
97 378 1
98 378 1
100 378 1
103 378 1
104 378 1
105 378 1
106 378 1
107 378 1
108 378 1
110 378 1
113 378 1
114 378 1
118 378 1
119 378 1
120 378 1
121 378 1
123 378 1
124 378 1
125 378 1
126 378 1
127 378 1
37 379 1
42 379 1
43 379 1
46 379 1
49 379 1
50 379 1
53 379 1
55 379 1
57 379 1
61 379 1
64 379 1
67 379 1
96 379 1
101 379 1
102 379 1
103 379 1
105 379 1
106 379 1
107 379 1
109 379 1
110 379 1
113 379 1
117 379 1
118 379 1
119 379 1
120 379 1
125 379 1
126 379 1
127 379 1
34 380 1
36 380 1
38 380 1
41 380 1
44 380 1
45 380 1
49 380 1
52 380 1
54 380 1
55 380 1
57 380 1
58 380 1
60 380 1
63 380 1
64 380 1
100 380 1
101 380 1
102 380 1
103 380 1
106 380 1
107 380 1
108 380 1
109 380 1
110 380 1
111 380 1
115 380 1
116 380 1
119 380 1
120 380 1
121 380 1
122 380 1
125 380 1
126 380 1
128 380 1
34 381 1
36 381 1
37 381 1
39 381 1
44 381 1
46 381 1
47 381 1
48 381 1
49 381 1
51 381 1
52 381 1
53 381 1
54 381 1
55 381 1
56 381 1
57 381 1
58 381 1
61 381 1
62 381 1
64 381 1
96 381 1
97 381 1
100 381 1
102 381 1
104 381 1
106 381 1
107 381 1
111 381 1
112 381 1
116 381 1
117 381 1
122 381 1
124 381 1
125 381 1
127 381 1
34 382 1
36 382 1
41 382 1
43 382 1
44 382 1
45 382 1
49 382 1
51 382 1
52 382 1
54 382 1
55 382 1
56 382 1
57 382 1
58 382 1
59 382 1
60 382 1
61 382 1
62 382 1
63 382 1
96 382 1
98 382 1
101 382 1
102 382 1
105 382 1
106 382 1
107 382 1
108 382 1
110 382 1
111 382 1
112 382 1
114 382 1
119 382 1
123 382 1
36 383 1
39 383 1
41 383 1
43 383 1
49 383 1
50 383 1
51 383 1
52 383 1
54 383 1
57 383 1
58 383 1
59 383 1
61 383 1
63 383 1
64 383 1
98 383 1
99 383 1
102 383 1
103 383 1
104 383 1
106 383 1
107 383 1
110 383 1
112 383 1
114 383 1
117 383 1
123 383 1
37 384 1
39 384 1
40 384 1
41 384 1
43 384 1
44 384 1
45 384 1
46 384 1
47 384 1
48 384 1
53 384 1
54 384 1
57 384 1
59 384 1
60 384 1
63 384 1
64 384 1
97 384 1
98 384 1
100 384 1
101 384 1
104 384 1
105 384 1
110 384 1
113 384 1
114 384 1
115 384 1
117 384 1
119 384 1
122 384 1
123 384 1
125 384 1
127 384 1
34 385 1
36 385 1
39 385 1
40 385 1
41 385 1
42 385 1
43 385 1
44 385 1
47 385 1
48 385 1
51 385 1
55 385 1
56 385 1
58 385 1
59 385 1
60 385 1
61 385 1
67 385 1
99 385 1
101 385 1
102 385 1
103 385 1
104 385 1
105 385 1
108 385 1
109 385 1
113 385 1
118 385 1
119 385 1
120 385 1
122 385 1
125 385 1
126 385 1
128 385 1
36 386 1
37 386 1
40 386 1
43 386 1
44 386 1
45 386 1
46 386 1
47 386 1
48 386 1
49 386 1
50 386 1
51 386 1
52 386 1
55 386 1
60 386 1
61 386 1
97 386 1
99 386 1
100 386 1
101 386 1
102 386 1
103 386 1
105 386 1
106 386 1
107 386 1
109 386 1
112 386 1
115 386 1
117 386 1
119 386 1
120 386 1
122 386 1
125 386 1
126 386 1
127 386 1
34 387 1
36 387 1
37 387 1
42 387 1
45 387 1
46 387 1
48 387 1
51 387 1
53 387 1
54 387 1
57 387 1
58 387 1
60 387 1
61 387 1
63 387 1
64 387 1
67 387 1
97 387 1
98 387 1
99 387 1
100 387 1
102 387 1
103 387 1
108 387 1
109 387 1
110 387 1
111 387 1
114 387 1
115 387 1
116 387 1
117 387 1
118 387 1
119 387 1
123 387 1
126 387 1
127 387 1
34 388 1
36 388 1
37 388 1
38 388 1
39 388 1
41 388 1
42 388 1
45 388 1
49 388 1
50 388 1
55 388 1
57 388 1
60 388 1
61 388 1
63 388 1
64 388 1
67 388 1
98 388 1
99 388 1
100 388 1
101 388 1
102 388 1
104 388 1
108 388 1
112 388 1
113 388 1
114 388 1
115 388 1
117 388 1
118 388 1
120 388 1
121 388 1
123 388 1
125 388 1
126 388 1
34 389 1
40 389 1
42 389 1
43 389 1
44 389 1
49 389 1
50 389 1
52 389 1
53 389 1
55 389 1
57 389 1
58 389 1
59 389 1
61 389 1
63 389 1
64 389 1
67 389 1
98 389 1
101 389 1
105 389 1
106 389 1
107 389 1
108 389 1
110 389 1
111 389 1
112 389 1
114 389 1
115 389 1
116 389 1
121 389 1
122 389 1
123 389 1
125 389 1
127 389 1
36 390 1
37 390 1
39 390 1
41 390 1
42 390 1
43 390 1
45 390 1
47 390 1
48 390 1
50 390 1
51 390 1
52 390 1
55 390 1
56 390 1
58 390 1
60 390 1
64 390 1
67 390 1
96 390 1
97 390 1
99 390 1
100 390 1
103 390 1
106 390 1
108 390 1
109 390 1
111 390 1
112 390 1
115 390 1
116 390 1
117 390 1
118 390 1
120 390 1
122 390 1
123 390 1
124 390 1
126 390 1
34 391 1
37 391 1
38 391 1
40 391 1
41 391 1
47 391 1
48 391 1
49 391 1
51 391 1
53 391 1
58 391 1
59 391 1
61 391 1
64 391 1
96 391 1
100 391 1
101 391 1
107 391 1
109 391 1
112 391 1
115 391 1
116 391 1
117 391 1
120 391 1
121 391 1
122 391 1
123 391 1
125 391 1
126 391 1
127 391 1
37 392 1
40 392 1
44 392 1
46 392 1
50 392 1
51 392 1
52 392 1
53 392 1
54 392 1
57 392 1
58 392 1
61 392 1
63 392 1
96 392 1
99 392 1
102 392 1
107 392 1
110 392 1
112 392 1
114 392 1
117 392 1
118 392 1
119 392 1
120 392 1
122 392 1
123 392 1
124 392 1
126 392 1
127 392 1
36 393 1
37 393 1
39 393 1
43 393 1
46 393 1
48 393 1
49 393 1
51 393 1
54 393 1
56 393 1
60 393 1
62 393 1
63 393 1
64 393 1
67 393 1
96 393 1
97 393 1
100 393 1
101 393 1
108 393 1
110 393 1
114 393 1
115 393 1
116 393 1
118 393 1
119 393 1
121 393 1
123 393 1
126 393 1
36 394 1
37 394 1
43 394 1
46 394 1
48 394 1
49 394 1
51 394 1
52 394 1
54 394 1
56 394 1
60 394 1
62 394 1
63 394 1
64 394 1
67 394 1
100 394 1
101 394 1
108 394 1
110 394 1
114 394 1
115 394 1
116 394 1
118 394 1
119 394 1
121 394 1
123 394 1
125 394 1
36 395 1
37 395 1
40 395 1
43 395 1
46 395 1
48 395 1
49 395 1
51 395 1
52 395 1
53 395 1
54 395 1
56 395 1
60 395 1
62 395 1
64 395 1
67 395 1
99 395 1
100 395 1
101 395 1
108 395 1
110 395 1
114 395 1
115 395 1
116 395 1
118 395 1
119 395 1
121 395 1
123 395 1
125 395 1
127 395 1
128 395 1
40 396 1
45 396 1
47 396 1
48 396 1
51 396 1
56 396 1
57 396 1
59 396 1
96 396 1
98 396 1
100 396 1
104 396 1
106 396 1
113 396 1
116 396 1
117 396 1
118 396 1
119 396 1
124 396 1
125 396 1
126 396 1
128 396 1
34 397 1
37 397 1
39 397 1
49 397 1
53 397 1
54 397 1
56 397 1
59 397 1
60 397 1
62 397 1
98 397 1
100 397 1
105 397 1
107 397 1
109 397 1
111 397 1
113 397 1
114 397 1
115 397 1
116 397 1
118 397 1
120 397 1
123 397 1
124 397 1
126 397 1
128 397 1
34 398 1
36 398 1
37 398 1
40 398 1
43 398 1
47 398 1
48 398 1
49 398 1
51 398 1
53 398 1
55 398 1
56 398 1
57 398 1
60 398 1
61 398 1
63 398 1
64 398 1
97 398 1
101 398 1
103 398 1
104 398 1
106 398 1
108 398 1
109 398 1
110 398 1
111 398 1
115 398 1
116 398 1
119 398 1
121 398 1
125 398 1
128 398 1
34 399 1
38 399 1
40 399 1
42 399 1
43 399 1
45 399 1
49 399 1
50 399 1
51 399 1
52 399 1
53 399 1
54 399 1
57 399 1
59 399 1
62 399 1
63 399 1
64 399 1
99 399 1
100 399 1
101 399 1
105 399 1
106 399 1
107 399 1
110 399 1
111 399 1
114 399 1
116 399 1
118 399 1
120 399 1
123 399 1
124 399 1
125 399 1
128 399 1
34 400 1
36 400 1
37 400 1
41 400 1
42 400 1
44 400 1
47 400 1
48 400 1
49 400 1
50 400 1
51 400 1
54 400 1
55 400 1
57 400 1
58 400 1
59 400 1
63 400 1
99 400 1
101 400 1
102 400 1
103 400 1
104 400 1
106 400 1
108 400 1
111 400 1
117 400 1
118 400 1
120 400 1
121 400 1
122 400 1
124 400 1
125 400 1
126 400 1
127 400 1
37 401 1
38 401 1
41 401 1
42 401 1
45 401 1
47 401 1
49 401 1
50 401 1
51 401 1
54 401 1
55 401 1
59 401 1
60 401 1
62 401 1
64 401 1
67 401 1
99 401 1
100 401 1
101 401 1
102 401 1
104 401 1
105 401 1
108 401 1
112 401 1
115 401 1
116 401 1
117 401 1
119 401 1
121 401 1
126 401 1
127 401 1
37 402 1
38 402 1
39 402 1
40 402 1
42 402 1
44 402 1
45 402 1
47 402 1
49 402 1
53 402 1
55 402 1
57 402 1
58 402 1
59 402 1
63 402 1
64 402 1
67 402 1
97 402 1
98 402 1
100 402 1
101 402 1
103 402 1
104 402 1
105 402 1
108 402 1
110 402 1
114 402 1
115 402 1
116 402 1
118 402 1
123 402 1
124 402 1
125 402 1
126 402 1
37 403 1
38 403 1
39 403 1
40 403 1
42 403 1
43 403 1
45 403 1
47 403 1
48 403 1
49 403 1
50 403 1
52 403 1
53 403 1
55 403 1
56 403 1
60 403 1
62 403 1
63 403 1
64 403 1
96 403 1
98 403 1
102 403 1
103 403 1
105 403 1
106 403 1
107 403 1
110 403 1
112 403 1
114 403 1
117 403 1
119 403 1
120 403 1
121 403 1
122 403 1
123 403 1
124 403 1
125 403 1
128 403 1
38 404 1
39 404 1
40 404 1
41 404 1
42 404 1
43 404 1
46 404 1
49 404 1
53 404 1
54 404 1
55 404 1
58 404 1
60 404 1
61 404 1
63 404 1
64 404 1
67 404 1
96 404 1
99 404 1
100 404 1
103 404 1
104 404 1
108 404 1
113 404 1
116 404 1
117 404 1
119 404 1
122 404 1
124 404 1
128 404 1
34 405 1
38 405 1
40 405 1
41 405 1
43 405 1
44 405 1
45 405 1
46 405 1
47 405 1
50 405 1
51 405 1
54 405 1
57 405 1
58 405 1
59 405 1
60 405 1
61 405 1
63 405 1
67 405 1
99 405 1
101 405 1
105 405 1
107 405 1
109 405 1
112 405 1
115 405 1
118 405 1
122 405 1
127 405 1
128 405 1
34 406 1
36 406 1
37 406 1
38 406 1
39 406 1
40 406 1
41 406 1
47 406 1
48 406 1
49 406 1
50 406 1
52 406 1
53 406 1
54 406 1
55 406 1
57 406 1
58 406 1
59 406 1
64 406 1
67 406 1
96 406 1
97 406 1
99 406 1
100 406 1
103 406 1
106 406 1
112 406 1
117 406 1
119 406 1
120 406 1
125 406 1
127 406 1
36 407 1
37 407 1
38 407 1
39 407 1
41 407 1
43 407 1
44 407 1
50 407 1
51 407 1
53 407 1
54 407 1
55 407 1
57 407 1
61 407 1
62 407 1
63 407 1
64 407 1
101 407 1
102 407 1
104 407 1
107 407 1
111 407 1
112 407 1
113 407 1
116 407 1
117 407 1
118 407 1
120 407 1
121 407 1
122 407 1
124 407 1
125 407 1
127 407 1
128 407 1
37 408 1
40 408 1
43 408 1
45 408 1
47 408 1
48 408 1
49 408 1
50 408 1
52 408 1
54 408 1
55 408 1
57 408 1
58 408 1
59 408 1
60 408 1
63 408 1
64 408 1
97 408 1
98 408 1
105 408 1
107 408 1
109 408 1
110 408 1
114 408 1
115 408 1
117 408 1
120 408 1
121 408 1
123 408 1
125 408 1
34 409 1
37 409 1
39 409 1
40 409 1
42 409 1
44 409 1
45 409 1
49 409 1
51 409 1
55 409 1
57 409 1
59 409 1
60 409 1
62 409 1
63 409 1
64 409 1
67 409 1
98 409 1
100 409 1
101 409 1
103 409 1
104 409 1
107 409 1
109 409 1
111 409 1
112 409 1
113 409 1
114 409 1
116 409 1
117 409 1
118 409 1
119 409 1
121 409 1
122 409 1
123 409 1
124 409 1
125 409 1
126 409 1
34 410 1
36 410 1
37 410 1
40 410 1
42 410 1
44 410 1
46 410 1
47 410 1
48 410 1
52 410 1
53 410 1
55 410 1
58 410 1
59 410 1
61 410 1
62 410 1
63 410 1
64 410 1
67 410 1
97 410 1
98 410 1
99 410 1
102 410 1
104 410 1
105 410 1
108 410 1
109 410 1
110 410 1
114 410 1
117 410 1
118 410 1
121 410 1
126 410 1
127 410 1
36 411 1
39 411 1
40 411 1
41 411 1
42 411 1
43 411 1
50 411 1
52 411 1
54 411 1
56 411 1
58 411 1
61 411 1
64 411 1
67 411 1
96 411 1
100 411 1
102 411 1
103 411 1
104 411 1
105 411 1
108 411 1
109 411 1
110 411 1
111 411 1
113 411 1
116 411 1
117 411 1
118 411 1
121 411 1
122 411 1
123 411 1
124 411 1
125 411 1
126 411 1
34 412 1
37 412 1
40 412 1
41 412 1
42 412 1
43 412 1
46 412 1
47 412 1
48 412 1
49 412 1
50 412 1
51 412 1
53 412 1
54 412 1
55 412 1
57 412 1
62 412 1
67 412 1
97 412 1
103 412 1
105 412 1
106 412 1
107 412 1
109 412 1
110 412 1
112 412 1
118 412 1
121 412 1
123 412 1
124 412 1
126 412 1
127 412 1
37 413 1
38 413 1
41 413 1
43 413 1
44 413 1
46 413 1
51 413 1
52 413 1
53 413 1
56 413 1
58 413 1
60 413 1
62 413 1
63 413 1
64 413 1
97 413 1
98 413 1
101 413 1
103 413 1
108 413 1
113 413 1
119 413 1
120 413 1
121 413 1
122 413 1
124 413 1
125 413 1
127 413 1
128 413 1
36 414 1
37 414 1
38 414 1
39 414 1
44 414 1
46 414 1
49 414 1
50 414 1
54 414 1
56 414 1
57 414 1
58 414 1
59 414 1
60 414 1
61 414 1
62 414 1
97 414 1
99 414 1
101 414 1
102 414 1
104 414 1
106 414 1
107 414 1
108 414 1
109 414 1
110 414 1
112 414 1
113 414 1
114 414 1
119 414 1
120 414 1
121 414 1
122 414 1
123 414 1
124 414 1
125 414 1
126 414 1
127 414 1
128 414 1
36 415 1
38 415 1
40 415 1
41 415 1
43 415 1
45 415 1
47 415 1
48 415 1
49 415 1
50 415 1
53 415 1
55 415 1
58 415 1
61 415 1
62 415 1
63 415 1
64 415 1
98 415 1
99 415 1
100 415 1
102 415 1
105 415 1
106 415 1
107 415 1
108 415 1
109 415 1
111 415 1
112 415 1
115 415 1
117 415 1
121 415 1
124 415 1
126 415 1
34 416 1
36 416 1
39 416 1
42 416 1
44 416 1
46 416 1
49 416 1
50 416 1
51 416 1
52 416 1
53 416 1
55 416 1
57 416 1
58 416 1
62 416 1
67 416 1
97 416 1
99 416 1
100 416 1
102 416 1
103 416 1
104 416 1
111 416 1
112 416 1
113 416 1
114 416 1
115 416 1
118 416 1
119 416 1
121 416 1
122 416 1
123 416 1
124 416 1
126 416 1
127 416 1
34 417 1
37 417 1
39 417 1
40 417 1
42 417 1
43 417 1
45 417 1
47 417 1
48 417 1
53 417 1
54 417 1
57 417 1
58 417 1
60 417 1
62 417 1
67 417 1
101 417 1
104 417 1
105 417 1
106 417 1
107 417 1
109 417 1
111 417 1
113 417 1
114 417 1
115 417 1
117 417 1
118 417 1
120 417 1
123 417 1
124 417 1
125 417 1
127 417 1
37 418 1
38 418 1
39 418 1
40 418 1
45 418 1
49 418 1
51 418 1
52 418 1
53 418 1
54 418 1
56 418 1
60 418 1
61 418 1
63 418 1
67 418 1
96 418 1
97 418 1
98 418 1
102 418 1
103 418 1
105 418 1
107 418 1
115 418 1
116 418 1
117 418 1
118 418 1
119 418 1
120 418 1
121 418 1
123 418 1
127 418 1
36 419 1
37 419 1
39 419 1
41 419 1
42 419 1
43 419 1
45 419 1
47 419 1
48 419 1
49 419 1
50 419 1
51 419 1
52 419 1
55 419 1
56 419 1
58 419 1
60 419 1
64 419 1
96 419 1
97 419 1
99 419 1
100 419 1
103 419 1
106 419 1
108 419 1
109 419 1
111 419 1
112 419 1
115 419 1
116 419 1
117 419 1
120 419 1
122 419 1
123 419 1
126 419 1
36 421 1
37 421 1
39 421 1
40 421 1
41 421 1
43 421 1
48 421 1
49 421 1
50 421 1
52 421 1
53 421 1
56 421 1
57 421 1
58 421 1
60 421 1
61 421 1
62 421 1
64 421 1
67 421 1
97 421 1
98 421 1
99 421 1
100 421 1
101 421 1
102 421 1
107 421 1
108 421 1
112 421 1
115 421 1
116 421 1
117 421 1
120 421 1
121 421 1
124 421 1
127 421 1
128 421 1
36 422 1
37 422 1
40 422 1
44 422 1
46 422 1
50 422 1
51 422 1
52 422 1
53 422 1
54 422 1
57 422 1
58 422 1
61 422 1
96 422 1
99 422 1
102 422 1
107 422 1
110 422 1
112 422 1
114 422 1
117 422 1
118 422 1
119 422 1
120 422 1
122 422 1
123 422 1
126 422 1
127 422 1
37 423 1
40 423 1
46 423 1
50 423 1
51 423 1
52 423 1
53 423 1
54 423 1
57 423 1
58 423 1
61 423 1
63 423 1
96 423 1
99 423 1
102 423 1
107 423 1
110 423 1
112 423 1
114 423 1
117 423 1
118 423 1
119 423 1
120 423 1
122 423 1
123 423 1
124 423 1
126 423 1
127 423 1
128 423 1
36 424 1
37 424 1
39 424 1
43 424 1
46 424 1
48 424 1
49 424 1
51 424 1
52 424 1
54 424 1
56 424 1
60 424 1
62 424 1
63 424 1
64 424 1
67 424 1
96 424 1
100 424 1
101 424 1
108 424 1
110 424 1
114 424 1
115 424 1
116 424 1
118 424 1
119 424 1
121 424 1
123 424 1
125 424 1
126 424 1
36 425 1
37 425 1
43 425 1
46 425 1
48 425 1
49 425 1
51 425 1
52 425 1
53 425 1
54 425 1
56 425 1
60 425 1
62 425 1
64 425 1
67 425 1
100 425 1
101 425 1
108 425 1
110 425 1
114 425 1
115 425 1
116 425 1
118 425 1
119 425 1
121 425 1
123 425 1
125 425 1
127 425 1
38 426 1
40 426 1
45 426 1
47 426 1
48 426 1
51 426 1
56 426 1
57 426 1
59 426 1
96 426 1
98 426 1
104 426 1
106 426 1
113 426 1
116 426 1
117 426 1
118 426 1
119 426 1
124 426 1
126 426 1
128 426 1
34 427 1
37 427 1
39 427 1
43 427 1
49 427 1
53 427 1
54 427 1
56 427 1
59 427 1
60 427 1
62 427 1
98 427 1
100 427 1
101 427 1
105 427 1
107 427 1
109 427 1
111 427 1
113 427 1
114 427 1
115 427 1
116 427 1
118 427 1
120 427 1
123 427 1
124 427 1
126 427 1
127 427 1
128 427 1
34 428 1
38 428 1
40 428 1
45 428 1
46 428 1
51 428 1
52 428 1
54 428 1
55 428 1
59 428 1
61 428 1
62 428 1
63 428 1
67 428 1
96 428 1
97 428 1
99 428 1
100 428 1
102 428 1
103 428 1
109 428 1
111 428 1
113 428 1
114 428 1
116 428 1
117 428 1
119 428 1
123 428 1
124 428 1
126 428 1
127 428 1
128 428 1
37 429 1
38 429 1
39 429 1
42 429 1
45 429 1
47 429 1
48 429 1
50 429 1
51 429 1
52 429 1
59 429 1
60 429 1
63 429 1
64 429 1
99 429 1
100 429 1
104 429 1
107 429 1
109 429 1
110 429 1
115 429 1
116 429 1
117 429 1
118 429 1
119 429 1
124 429 1
127 429 1
128 429 1
34 430 1
36 430 1
38 430 1
39 430 1
40 430 1
41 430 1
42 430 1
44 430 1
45 430 1
46 430 1
48 430 1
50 430 1
52 430 1
53 430 1
56 430 1
57 430 1
58 430 1
59 430 1
60 430 1
61 430 1
67 430 1
96 430 1
97 430 1
98 430 1
99 430 1
101 430 1
105 430 1
106 430 1
107 430 1
108 430 1
111 430 1
115 430 1
119 430 1
121 430 1
122 430 1
124 430 1
125 430 1
126 430 1
34 431 1
36 431 1
37 431 1
39 431 1
40 431 1
41 431 1
42 431 1
43 431 1
47 431 1
51 431 1
52 431 1
53 431 1
54 431 1
56 431 1
60 431 1
61 431 1
62 431 1
64 431 1
67 431 1
97 431 1
100 431 1
102 431 1
103 431 1
104 431 1
106 431 1
107 431 1
111 431 1
112 431 1
115 431 1
116 431 1
118 431 1
119 431 1
124 431 1
125 431 1
126 431 1
36 432 1
37 432 1
38 432 1
40 432 1
41 432 1
42 432 1
43 432 1
45 432 1
47 432 1
48 432 1
51 432 1
53 432 1
54 432 1
55 432 1
56 432 1
57 432 1
58 432 1
59 432 1
60 432 1
61 432 1
62 432 1
96 432 1
104 432 1
105 432 1
119 432 1
120 432 1
121 432 1
122 432 1
124 432 1
125 432 1
128 432 1
37 433 1
38 433 1
42 433 1
44 433 1
45 433 1
47 433 1
49 433 1
55 433 1
57 433 1
58 433 1
59 433 1
61 433 1
67 433 1
96 433 1
97 433 1
98 433 1
99 433 1
100 433 1
101 433 1
103 433 1
105 433 1
108 433 1
110 433 1
114 433 1
115 433 1
116 433 1
123 433 1
124 433 1
125 433 1
127 433 1
128 433 1
36 434 1
38 434 1
39 434 1
42 434 1
46 434 1
48 434 1
50 434 1
54 434 1
55 434 1
56 434 1
57 434 1
63 434 1
101 434 1
102 434 1
103 434 1
104 434 1
107 434 1
108 434 1
112 434 1
113 434 1
115 434 1
119 434 1
120 434 1
125 434 1
126 434 1
127 434 1
34 435 1
38 435 1
39 435 1
41 435 1
43 435 1
44 435 1
45 435 1
46 435 1
47 435 1
51 435 1
53 435 1
54 435 1
57 435 1
58 435 1
59 435 1
60 435 1
61 435 1
64 435 1
67 435 1
96 435 1
101 435 1
105 435 1
107 435 1
109 435 1
115 435 1
122 435 1
126 435 1
34 436 1
38 436 1
39 436 1
41 436 1
43 436 1
44 436 1
45 436 1
46 436 1
48 436 1
50 436 1
55 436 1
58 436 1
60 436 1
62 436 1
67 436 1
97 436 1
98 436 1
99 436 1
100 436 1
101 436 1
103 436 1
104 436 1
108 436 1
109 436 1
110 436 1
112 436 1
113 436 1
114 436 1
115 436 1
119 436 1
120 436 1
121 436 1
122 436 1
123 436 1
124 436 1
125 436 1
126 436 1
128 436 1
34 437 1
36 437 1
38 437 1
39 437 1
40 437 1
41 437 1
42 437 1
43 437 1
46 437 1
47 437 1
48 437 1
52 437 1
54 437 1
58 437 1
59 437 1
61 437 1
67 437 1
97 437 1
99 437 1
100 437 1
101 437 1
102 437 1
105 437 1
107 437 1
108 437 1
109 437 1
110 437 1
112 437 1
113 437 1
118 437 1
126 437 1
37 438 1
39 438 1
43 438 1
45 438 1
49 438 1
50 438 1
51 438 1
52 438 1
53 438 1
58 438 1
60 438 1
61 438 1
62 438 1
100 438 1
103 438 1
104 438 1
106 438 1
108 438 1
109 438 1
110 438 1
113 438 1
115 438 1
117 438 1
118 438 1
119 438 1
124 438 1
126 438 1
127 438 1
34 439 1
39 439 1
40 439 1
43 439 1
44 439 1
45 439 1
46 439 1
50 439 1
51 439 1
53 439 1
56 439 1
59 439 1
60 439 1
61 439 1
62 439 1
63 439 1
96 439 1
98 439 1
100 439 1
102 439 1
104 439 1
105 439 1
106 439 1
110 439 1
111 439 1
112 439 1
114 439 1
115 439 1
116 439 1
120 439 1
121 439 1
122 439 1
123 439 1
124 439 1
127 439 1
36 440 1
39 440 1
40 440 1
41 440 1
42 440 1
43 440 1
52 440 1
54 440 1
56 440 1
58 440 1
61 440 1
64 440 1
67 440 1
96 440 1
100 440 1
102 440 1
103 440 1
104 440 1
105 440 1
106 440 1
108 440 1
109 440 1
110 440 1
111 440 1
113 440 1
116 440 1
117 440 1
118 440 1
121 440 1
122 440 1
124 440 1
125 440 1
126 440 1
34 441 1
37 441 1
40 441 1
41 441 1
42 441 1
43 441 1
44 441 1
46 441 1
47 441 1
48 441 1
49 441 1
50 441 1
51 441 1
53 441 1
54 441 1
55 441 1
57 441 1
62 441 1
67 441 1
97 441 1
103 441 1
105 441 1
106 441 1
107 441 1
108 441 1
109 441 1
110 441 1
112 441 1
118 441 1
121 441 1
123 441 1
126 441 1
127 441 1
36 442 1
37 442 1
40 442 1
42 442 1
44 442 1
45 442 1
46 442 1
47 442 1
48 442 1
50 442 1
52 442 1
53 442 1
56 442 1
57 442 1
58 442 1
59 442 1
60 442 1
61 442 1
63 442 1
67 442 1
96 442 1
97 442 1
98 442 1
101 442 1
102 442 1
103 442 1
108 442 1
109 442 1
111 442 1
114 442 1
116 442 1
118 442 1
119 442 1
121 442 1
124 442 1
126 442 1
127 442 1
36 443 1
37 443 1
38 443 1
39 443 1
44 443 1
46 443 1
49 443 1
50 443 1
53 443 1
54 443 1
56 443 1
57 443 1
58 443 1
59 443 1
60 443 1
61 443 1
62 443 1
97 443 1
99 443 1
101 443 1
102 443 1
104 443 1
106 443 1
107 443 1
108 443 1
110 443 1
112 443 1
113 443 1
114 443 1
119 443 1
120 443 1
121 443 1
122 443 1
123 443 1
124 443 1
125 443 1
127 443 1
128 443 1
36 444 1
38 444 1
40 444 1
41 444 1
43 444 1
45 444 1
47 444 1
48 444 1
49 444 1
50 444 1
53 444 1
55 444 1
56 444 1
58 444 1
61 444 1
62 444 1
63 444 1
64 444 1
98 444 1
99 444 1
100 444 1
102 444 1
105 444 1
106 444 1
107 444 1
108 444 1
109 444 1
112 444 1
115 444 1
117 444 1
121 444 1
124 444 1
126 444 1
128 444 1
34 445 1
38 445 1
39 445 1
42 445 1
44 445 1
45 445 1
49 445 1
50 445 1
51 445 1
53 445 1
56 445 1
59 445 1
62 445 1
63 445 1
64 445 1
67 445 1
98 445 1
100 445 1
101 445 1
103 445 1
104 445 1
106 445 1
107 445 1
111 445 1
112 445 1
113 445 1
115 445 1
117 445 1
118 445 1
120 445 1
121 445 1
122 445 1
124 445 1
125 445 1
128 445 1
34 446 1
37 446 1
39 446 1
40 446 1
42 446 1
43 446 1
45 446 1
47 446 1
48 446 1
53 446 1
57 446 1
58 446 1
60 446 1
62 446 1
67 446 1
101 446 1
104 446 1
105 446 1
106 446 1
107 446 1
109 446 1
111 446 1
113 446 1
114 446 1
117 446 1
118 446 1
120 446 1
123 446 1
124 446 1
125 446 1
36 447 1
39 447 1
40 447 1
43 447 1
46 447 1
47 447 1
51 447 1
59 447 1
61 447 1
62 447 1
63 447 1
64 447 1
97 447 1
98 447 1
99 447 1
100 447 1
101 447 1
102 447 1
103 447 1
104 447 1
105 447 1
106 447 1
107 447 1
108 447 1
110 447 1
113 447 1
116 447 1
118 447 1
119 447 1
120 447 1
124 447 1
125 447 1
126 447 1
34 448 1
36 448 1
40 448 1
41 448 1
42 448 1
50 448 1
51 448 1
52 448 1
53 448 1
54 448 1
55 448 1
56 448 1
57 448 1
62 448 1
64 448 1
96 448 1
97 448 1
99 448 1
100 448 1
101 448 1
103 448 1
104 448 1
105 448 1
107 448 1
108 448 1
112 448 1
113 448 1
114 448 1
116 448 1
119 448 1
122 448 1
125 448 1
126 448 1
127 448 1
37 449 1
38 449 1
39 449 1
40 449 1
45 449 1
46 449 1
49 449 1
51 449 1
52 449 1
53 449 1
54 449 1
56 449 1
60 449 1
61 449 1
63 449 1
67 449 1
96 449 1
97 449 1
98 449 1
102 449 1
103 449 1
105 449 1
107 449 1
115 449 1
116 449 1
117 449 1
118 449 1
119 449 1
120 449 1
127 449 1
36 450 1
37 450 1
39 450 1
41 450 1
42 450 1
43 450 1
45 450 1
47 450 1
48 450 1
50 450 1
51 450 1
52 450 1
55 450 1
56 450 1
58 450 1
60 450 1
64 450 1
96 450 1
97 450 1
99 450 1
100 450 1
103 450 1
106 450 1
108 450 1
109 450 1
111 450 1
112 450 1
115 450 1
116 450 1
117 450 1
118 450 1
120 450 1
122 450 1
123 450 1
124 450 1
126 450 1
65 451 1
69 452 1
66 453 1
68 454 1
73 455 1
72 456 1
70 457 1
76 458 1
75 459 1
74 460 1
71 461 1
78 462 1
80 463 1
81 464 1
79 465 1
82 466 1
77 467 1
85 468 1
83 469 1
87 470 1
89 471 1
88 472 1
84 473 1
86 474 1
91 475 1
94 476 1
90 477 1
93 478 1
92 479 1
95 480 1
129 481 1
131 482 1
130 483 1
39 484 1
43 484 1
45 484 1
46 484 1
47 484 1
50 484 1
55 484 1
58 484 1
60 484 1
62 484 1
63 484 1
64 484 1
65 484 1
67 484 1
68 484 1
69 484 1
72 484 1
73 484 1
74 484 1
75 484 1
76 484 1
78 484 1
82 484 1
83 484 1
85 484 1
86 484 1
88 484 1
89 484 1
91 484 1
94 484 1
95 484 1
96 484 1
97 484 1
101 484 1
106 484 1
107 484 1
108 484 1
109 484 1
110 484 1
114 484 1
117 484 1
119 484 1
120 484 1
122 484 1
123 484 1
124 484 1
125 484 1
127 484 1
131 484 1
36 485 1
37 485 1
41 485 1
42 485 1
43 485 1
45 485 1
49 485 1
50 485 1
52 485 1
53 485 1
57 485 1
58 485 1
62 485 1
65 485 1
66 485 1
67 485 1
69 485 1
70 485 1
71 485 1
72 485 1
73 485 1
74 485 1
75 485 1
77 485 1
80 485 1
83 485 1
84 485 1
87 485 1
88 485 1
90 485 1
91 485 1
94 485 1
97 485 1
100 485 1
101 485 1
102 485 1
107 485 1
111 485 1
113 485 1
114 485 1
115 485 1
117 485 1
118 485 1
121 485 1
122 485 1
127 485 1
128 485 1
130 485 1
36 486 1
37 486 1
39 486 1
41 486 1
42 486 1
46 486 1
47 486 1
49 486 1
52 486 1
53 486 1
55 486 1
57 486 1
60 486 1
63 486 1
64 486 1
68 486 1
76 486 1
77 486 1
79 486 1
81 486 1
82 486 1
83 486 1
85 486 1
86 486 1
88 486 1
89 486 1
90 486 1
92 486 1
93 486 1
96 486 1
100 486 1
102 486 1
106 486 1
108 486 1
109 486 1
110 486 1
111 486 1
113 486 1
115 486 1
118 486 1
119 486 1
120 486 1
121 486 1
123 486 1
124 486 1
125 486 1
128 486 1
129 486 1
130 486 1
131 486 1
36 487 1
37 487 1
38 487 1
48 487 1
49 487 1
50 487 1
51 487 1
52 487 1
53 487 1
55 487 1
56 487 1
57 487 1
59 487 1
63 487 1
66 487 1
67 487 1
69 487 1
70 487 1
71 487 1
72 487 1
73 487 1
74 487 1
75 487 1
78 487 1
85 487 1
91 487 1
93 487 1
94 487 1
95 487 1
98 487 1
99 487 1
102 487 1
106 487 1
113 487 1
114 487 1
115 487 1
117 487 1
121 487 1
122 487 1
123 487 1
125 487 1
126 487 1
128 487 1
129 487 1
37 488 1
39 488 1
43 488 1
47 488 1
48 488 1
49 488 1
53 488 1
55 488 1
60 488 1
62 488 1
63 488 1
72 488 1
73 488 1
74 488 1
75 488 1
77 488 1
78 488 1
79 488 1
80 488 1
83 488 1
84 488 1
85 488 1
86 488 1
87 488 1
89 488 1
90 488 1
91 488 1
94 488 1
95 488 1
96 488 1
106 488 1
108 488 1
109 488 1
113 488 1
114 488 1
115 488 1
117 488 1
121 488 1
123 488 1
124 488 1
129 488 1
130 488 1
131 488 1
37 489 1
38 489 1
41 489 1
42 489 1
43 489 1
46 489 1
49 489 1
50 489 1
51 489 1
53 489 1
55 489 1
56 489 1
59 489 1
62 489 1
63 489 1
64 489 1
67 489 1
68 489 1
69 489 1
70 489 1
71 489 1
73 489 1
75 489 1
76 489 1
78 489 1
80 489 1
81 489 1
87 489 1
90 489 1
93 489 1
95 489 1
98 489 1
99 489 1
100 489 1
106 489 1
110 489 1
111 489 1
113 489 1
115 489 1
118 489 1
119 489 1
120 489 1
121 489 1
122 489 1
123 489 1
126 489 1
130 489 1
36 490 1
38 490 1
45 490 1
46 490 1
51 490 1
52 490 1
55 490 1
56 490 1
57 490 1
58 490 1
59 490 1
63 490 1
64 490 1
65 490 1
69 490 1
70 490 1
71 490 1
73 490 1
75 490 1
76 490 1
77 490 1
80 490 1
81 490 1
82 490 1
83 490 1
84 490 1
87 490 1
88 490 1
89 490 1
93 490 1
94 490 1
97 490 1
98 490 1
99 490 1
101 490 1
102 490 1
106 490 1
107 490 1
110 490 1
114 490 1
117 490 1
119 490 1
120 490 1
123 490 1
126 490 1
127 490 1
128 490 1
129 490 1
130 490 1
131 490 1
36 491 1
37 491 1
41 491 1
42 491 1
43 491 1
45 491 1
49 491 1
50 491 1
52 491 1
53 491 1
57 491 1
58 491 1
62 491 1
67 491 1
70 491 1
71 491 1
75 491 1
76 491 1
81 491 1
82 491 1
83 491 1
85 491 1
86 491 1
89 491 1
90 491 1
94 491 1
97 491 1
100 491 1
101 491 1
102 491 1
107 491 1
111 491 1
113 491 1
114 491 1
115 491 1
117 491 1
118 491 1
121 491 1
122 491 1
127 491 1
128 491 1
129 491 1
36 492 1
41 492 1
42 492 1
43 492 1
46 492 1
48 492 1
52 492 1
57 492 1
62 492 1
64 492 1
65 492 1
66 492 1
68 492 1
70 492 1
71 492 1
73 492 1
74 492 1
78 492 1
83 492 1
84 492 1
85 492 1
86 492 1
88 492 1
89 492 1
90 492 1
92 492 1
93 492 1
95 492 1
100 492 1
102 492 1
110 492 1
111 492 1
114 492 1
117 492 1
118 492 1
119 492 1
120 492 1
125 492 1
128 492 1
129 492 1
130 492 1
131 492 1
37 493 1
38 493 1
41 493 1
42 493 1
43 493 1
46 493 1
49 493 1
50 493 1
51 493 1
53 493 1
55 493 1
56 493 1
59 493 1
62 493 1
63 493 1
64 493 1
67 493 1
71 493 1
74 493 1
75 493 1
80 493 1
82 493 1
84 493 1
85 493 1
87 493 1
89 493 1
92 493 1
93 493 1
94 493 1
98 493 1
99 493 1
100 493 1
106 493 1
110 493 1
111 493 1
113 493 1
115 493 1
118 493 1
119 493 1
120 493 1
121 493 1
122 493 1
123 493 1
126 493 1
130 493 1
36 494 1
37 494 1
41 494 1
42 494 1
43 494 1
45 494 1
49 494 1
50 494 1
52 494 1
53 494 1
57 494 1
58 494 1
62 494 1
65 494 1
67 494 1
68 494 1
69 494 1
71 494 1
72 494 1
73 494 1
75 494 1
76 494 1
77 494 1
81 494 1
82 494 1
85 494 1
90 494 1
91 494 1
92 494 1
94 494 1
97 494 1
100 494 1
101 494 1
102 494 1
107 494 1
111 494 1
113 494 1
114 494 1
115 494 1
117 494 1
118 494 1
121 494 1
122 494 1
127 494 1
128 494 1
131 494 1
65 495 1
68 495 1
69 495 1
71 495 1
72 495 1
74 495 1
76 495 1
78 495 1
83 495 1
84 495 1
86 495 1
87 495 1
89 495 1
90 495 1
91 495 1
92 495 1
93 495 1
94 495 1
129 495 1
36 496 1
38 496 1
39 496 1
43 496 1
47 496 1
50 496 1
51 496 1
52 496 1
56 496 1
57 496 1
59 496 1
60 496 1
62 496 1
65 496 1
67 496 1
68 496 1
69 496 1
76 496 1
77 496 1
78 496 1
79 496 1
80 496 1
84 496 1
85 496 1
88 496 1
90 496 1
93 496 1
94 496 1
96 496 1
98 496 1
99 496 1
102 496 1
108 496 1
109 496 1
122 496 1
124 496 1
125 496 1
126 496 1
128 496 1
129 496 1
130 496 1
131 496 1
36 497 1
39 497 1
41 497 1
42 497 1
45 497 1
47 497 1
48 497 1
50 497 1
52 497 1
55 497 1
57 497 1
58 497 1
60 497 1
63 497 1
67 497 1
70 497 1
71 497 1
72 497 1
73 497 1
74 497 1
75 497 1
77 497 1
78 497 1
79 497 1
80 497 1
81 497 1
85 497 1
86 497 1
87 497 1
88 497 1
90 497 1
93 497 1
94 497 1
96 497 1
97 497 1
100 497 1
101 497 1
102 497 1
106 497 1
107 497 1
108 497 1
109 497 1
111 497 1
118 497 1
122 497 1
123 497 1
124 497 1
127 497 1
128 497 1
129 497 1
36 498 1
37 498 1
39 498 1
41 498 1
42 498 1
46 498 1
47 498 1
49 498 1
52 498 1
53 498 1
55 498 1
57 498 1
60 498 1
63 498 1
64 498 1
70 498 1
71 498 1
72 498 1
74 498 1
76 498 1
78 498 1
79 498 1
80 498 1
81 498 1
82 498 1
83 498 1
84 498 1
85 498 1
89 498 1
90 498 1
91 498 1
92 498 1
93 498 1
96 498 1
100 498 1
102 498 1
106 498 1
108 498 1
109 498 1
110 498 1
111 498 1
113 498 1
115 498 1
118 498 1
119 498 1
120 498 1
121 498 1
123 498 1
124 498 1
125 498 1
128 498 1
131 498 1
36 499 1
37 499 1
38 499 1
48 499 1
49 499 1
50 499 1
51 499 1
52 499 1
53 499 1
55 499 1
56 499 1
57 499 1
59 499 1
63 499 1
67 499 1
70 499 1
71 499 1
75 499 1
76 499 1
77 499 1
78 499 1
79 499 1
80 499 1
81 499 1
82 499 1
83 499 1
86 499 1
87 499 1
88 499 1
92 499 1
93 499 1
94 499 1
95 499 1
98 499 1
99 499 1
102 499 1
106 499 1
113 499 1
114 499 1
115 499 1
117 499 1
121 499 1
122 499 1
123 499 1
125 499 1
126 499 1
128 499 1
130 499 1
37 500 1
39 500 1
43 500 1
47 500 1
48 500 1
49 500 1
53 500 1
55 500 1
60 500 1
62 500 1
63 500 1
65 500 1
66 500 1
69 500 1
70 500 1
71 500 1
72 500 1
75 500 1
76 500 1
80 500 1
81 500 1
83 500 1
85 500 1
88 500 1
89 500 1
90 500 1
91 500 1
94 500 1
95 500 1
96 500 1
106 500 1
108 500 1
109 500 1
113 500 1
114 500 1
115 500 1
117 500 1
121 500 1
123 500 1
124 500 1
129 500 1
130 500 1
131 500 1
36 501 1
39 501 1
41 501 1
42 501 1
45 501 1
47 501 1
48 501 1
50 501 1
52 501 1
55 501 1
57 501 1
58 501 1
60 501 1
63 501 1
65 501 1
67 501 1
68 501 1
71 501 1
72 501 1
75 501 1
76 501 1
77 501 1
81 501 1
82 501 1
90 501 1
92 501 1
93 501 1
96 501 1
97 501 1
100 501 1
101 501 1
102 501 1
106 501 1
107 501 1
108 501 1
109 501 1
111 501 1
118 501 1
122 501 1
123 501 1
124 501 1
127 501 1
128 501 1
129 501 1
69 502 1
70 502 1
73 502 1
74 502 1
75 502 1
77 502 1
78 502 1
79 502 1
85 502 1
92 502 1
93 502 1
95 502 1
131 502 1
65 503 1
66 503 1
71 503 1
72 503 1
74 503 1
76 503 1
80 503 1
82 503 1
83 503 1
85 503 1
92 503 1
95 503 1
130 503 1
37 504 1
39 504 1
43 504 1
47 504 1
48 504 1
49 504 1
53 504 1
55 504 1
60 504 1
62 504 1
63 504 1
65 504 1
66 504 1
68 504 1
72 504 1
74 504 1
75 504 1
79 504 1
81 504 1
82 504 1
84 504 1
88 504 1
92 504 1
94 504 1
95 504 1
96 504 1
106 504 1
108 504 1
109 504 1
113 504 1
114 504 1
115 504 1
117 504 1
121 504 1
123 504 1
124 504 1
129 504 1
130 504 1
131 504 1
36 505 1
37 505 1
38 505 1
39 505 1
43 505 1
45 505 1
46 505 1
47 505 1
48 505 1
49 505 1
51 505 1
52 505 1
53 505 1
56 505 1
57 505 1
58 505 1
59 505 1
60 505 1
62 505 1
64 505 1
70 505 1
71 505 1
72 505 1
75 505 1
76 505 1
77 505 1
78 505 1
79 505 1
83 505 1
84 505 1
85 505 1
88 505 1
89 505 1
90 505 1
91 505 1
94 505 1
96 505 1
97 505 1
98 505 1
99 505 1
101 505 1
102 505 1
107 505 1
108 505 1
109 505 1
110 505 1
113 505 1
115 505 1
119 505 1
120 505 1
121 505 1
124 505 1
126 505 1
127 505 1
128 505 1
130 505 1
36 506 1
37 506 1
38 506 1
48 506 1
49 506 1
50 506 1
51 506 1
52 506 1
53 506 1
55 506 1
56 506 1
57 506 1
59 506 1
63 506 1
66 506 1
67 506 1
69 506 1
71 506 1
72 506 1
75 506 1
76 506 1
77 506 1
79 506 1
80 506 1
85 506 1
86 506 1
90 506 1
92 506 1
93 506 1
98 506 1
99 506 1
102 506 1
106 506 1
113 506 1
114 506 1
115 506 1
117 506 1
121 506 1
122 506 1
123 506 1
125 506 1
126 506 1
128 506 1
129 506 1
130 506 1
131 506 1
37 507 1
45 507 1
46 507 1
48 507 1
49 507 1
50 507 1
53 507 1
58 507 1
64 507 1
67 507 1
68 507 1
69 507 1
71 507 1
72 507 1
75 507 1
77 507 1
79 507 1
81 507 1
84 507 1
85 507 1
87 507 1
88 507 1
91 507 1
93 507 1
94 507 1
95 507 1
97 507 1
101 507 1
107 507 1
110 507 1
113 507 1
115 507 1
119 507 1
120 507 1
121 507 1
122 507 1
125 507 1
127 507 1
129 507 1
65 508 1
66 508 1
70 508 1
73 508 1
74 508 1
78 508 1
79 508 1
82 508 1
83 508 1
84 508 1
85 508 1
86 508 1
89 508 1
90 508 1
92 508 1
94 508 1
131 508 1
36 509 1
37 509 1
39 509 1
41 509 1
42 509 1
46 509 1
47 509 1
49 509 1
52 509 1
53 509 1
55 509 1
57 509 1
60 509 1
63 509 1
64 509 1
65 509 1
66 509 1
69 509 1
70 509 1
72 509 1
73 509 1
75 509 1
79 509 1
80 509 1
82 509 1
83 509 1
84 509 1
85 509 1
88 509 1
89 509 1
90 509 1
92 509 1
93 509 1
96 509 1
100 509 1
102 509 1
106 509 1
108 509 1
109 509 1
110 509 1
111 509 1
113 509 1
115 509 1
118 509 1
119 509 1
120 509 1
121 509 1
123 509 1
124 509 1
125 509 1
128 509 1
129 509 1
37 510 1
38 510 1
39 510 1
41 510 1
42 510 1
45 510 1
47 510 1
49 510 1
51 510 1
53 510 1
56 510 1
58 510 1
59 510 1
60 510 1
65 510 1
69 510 1
71 510 1
72 510 1
73 510 1
74 510 1
75 510 1
79 510 1
81 510 1
82 510 1
83 510 1
85 510 1
88 510 1
89 510 1
91 510 1
93 510 1
96 510 1
97 510 1
98 510 1
99 510 1
100 510 1
101 510 1
107 510 1
108 510 1
109 510 1
111 510 1
113 510 1
114 510 1
115 510 1
117 510 1
118 510 1
121 510 1
124 510 1
125 510 1
126 510 1
127 510 1
129 510 1
130 510 1
131 510 1
37 511 1
38 511 1
39 511 1
41 511 1
42 511 1
45 511 1
47 511 1
49 511 1
51 511 1
53 511 1
56 511 1
58 511 1
59 511 1
60 511 1
66 511 1
69 511 1
71 511 1
72 511 1
74 511 1
75 511 1
78 511 1
79 511 1
80 511 1
81 511 1
83 511 1
84 511 1
86 511 1
87 511 1
88 511 1
89 511 1
90 511 1
92 511 1
93 511 1
95 511 1
96 511 1
97 511 1
98 511 1
99 511 1
100 511 1
101 511 1
107 511 1
108 511 1
109 511 1
111 511 1
113 511 1
114 511 1
115 511 1
117 511 1
118 511 1
121 511 1
124 511 1
125 511 1
126 511 1
127 511 1
134 511 1
36 512 1
37 512 1
38 512 1
39 512 1
43 512 1
45 512 1
46 512 1
47 512 1
48 512 1
49 512 1
51 512 1
52 512 1
53 512 1
56 512 1
57 512 1
58 512 1
59 512 1
60 512 1
62 512 1
64 512 1
66 512 1
68 512 1
70 512 1
72 512 1
74 512 1
76 512 1
77 512 1
81 512 1
83 512 1
84 512 1
86 512 1
87 512 1
88 512 1
92 512 1
93 512 1
95 512 1
96 512 1
97 512 1
98 512 1
99 512 1
101 512 1
102 512 1
107 512 1
108 512 1
109 512 1
110 512 1
113 512 1
115 512 1
119 512 1
120 512 1
121 512 1
124 512 1
126 512 1
127 512 1
128 512 1
134 512 1
36 513 1
37 513 1
38 513 1
48 513 1
49 513 1
50 513 1
51 513 1
52 513 1
53 513 1
55 513 1
56 513 1
57 513 1
59 513 1
63 513 1
67 513 1
68 513 1
70 513 1
72 513 1
73 513 1
75 513 1
77 513 1
78 513 1
80 513 1
82 513 1
83 513 1
84 513 1
85 513 1
86 513 1
87 513 1
92 513 1
95 513 1
98 513 1
99 513 1
102 513 1
106 513 1
113 513 1
114 513 1
115 513 1
117 513 1
121 513 1
122 513 1
123 513 1
125 513 1
126 513 1
128 513 1
134 513 1
39 514 1
43 514 1
45 514 1
46 514 1
47 514 1
50 514 1
55 514 1
58 514 1
60 514 1
62 514 1
63 514 1
64 514 1
67 514 1
70 514 1
71 514 1
73 514 1
74 514 1
78 514 1
79 514 1
81 514 1
82 514 1
85 514 1
86 514 1
87 514 1
95 514 1
96 514 1
97 514 1
101 514 1
106 514 1
107 514 1
108 514 1
109 514 1
110 514 1
114 514 1
117 514 1
119 514 1
120 514 1
122 514 1
123 514 1
124 514 1
125 514 1
127 514 1
134 514 1
134 515 1
36 516 1
37 516 1
38 516 1
48 516 1
49 516 1
50 516 1
51 516 1
52 516 1
53 516 1
55 516 1
56 516 1
57 516 1
59 516 1
63 516 1
66 516 1
67 516 1
68 516 1
70 516 1
72 516 1
73 516 1
75 516 1
78 516 1
80 516 1
82 516 1
83 516 1
84 516 1
85 516 1
86 516 1
87 516 1
92 516 1
95 516 1
98 516 1
99 516 1
102 516 1
106 516 1
113 516 1
114 516 1
115 516 1
117 516 1
121 516 1
122 516 1
123 516 1
125 516 1
126 516 1
128 516 1
129 516 1
130 516 1
134 516 1
65 517 1
69 517 1
70 517 1
71 517 1
72 517 1
75 517 1
76 517 1
79 517 1
81 517 1
83 517 1
85 517 1
87 517 1
88 517 1
89 517 1
91 517 1
94 517 1
134 517 1
36 518 1
37 518 1
41 518 1
42 518 1
43 518 1
45 518 1
49 518 1
50 518 1
52 518 1
53 518 1
57 518 1
58 518 1
62 518 1
65 518 1
66 518 1
67 518 1
69 518 1
70 518 1
71 518 1
72 518 1
74 518 1
75 518 1
77 518 1
80 518 1
84 518 1
87 518 1
88 518 1
90 518 1
91 518 1
94 518 1
97 518 1
100 518 1
101 518 1
102 518 1
107 518 1
111 518 1
113 518 1
114 518 1
115 518 1
117 518 1
118 518 1
121 518 1
122 518 1
127 518 1
128 518 1
134 518 1
38 519 1
41 519 1
42 519 1
43 519 1
45 519 1
48 519 1
51 519 1
55 519 1
56 519 1
58 519 1
59 519 1
62 519 1
63 519 1
65 519 1
66 519 1
68 519 1
69 519 1
70 519 1
72 519 1
74 519 1
77 519 1
79 519 1
80 519 1
81 519 1
82 519 1
83 519 1
84 519 1
85 519 1
86 519 1
90 519 1
91 519 1
93 519 1
94 519 1
97 519 1
98 519 1
99 519 1
100 519 1
101 519 1
106 519 1
107 519 1
111 519 1
118 519 1
123 519 1
125 519 1
126 519 1
127 519 1
134 519 1
37 520 1
38 520 1
41 520 1
42 520 1
43 520 1
46 520 1
49 520 1
50 520 1
51 520 1
53 520 1
55 520 1
56 520 1
59 520 1
62 520 1
63 520 1
64 520 1
67 520 1
69 520 1
71 520 1
72 520 1
75 520 1
76 520 1
77 520 1
78 520 1
79 520 1
80 520 1
81 520 1
84 520 1
90 520 1
91 520 1
93 520 1
94 520 1
95 520 1
98 520 1
99 520 1
100 520 1
106 520 1
110 520 1
111 520 1
113 520 1
115 520 1
118 520 1
119 520 1
120 520 1
121 520 1
122 520 1
123 520 1
126 520 1
129 520 1
130 520 1
134 520 1
37 521 1
45 521 1
46 521 1
48 521 1
49 521 1
50 521 1
53 521 1
58 521 1
64 521 1
65 521 1
66 521 1
67 521 1
68 521 1
69 521 1
70 521 1
71 521 1
73 521 1
77 521 1
78 521 1
81 521 1
82 521 1
88 521 1
90 521 1
92 521 1
93 521 1
95 521 1
97 521 1
101 521 1
107 521 1
110 521 1
113 521 1
115 521 1
119 521 1
120 521 1
121 521 1
122 521 1
125 521 1
127 521 1
134 521 1
36 522 1
38 522 1
45 522 1
46 522 1
51 522 1
52 522 1
55 522 1
56 522 1
57 522 1
58 522 1
59 522 1
63 522 1
64 522 1
65 522 1
69 522 1
70 522 1
75 522 1
76 522 1
77 522 1
79 522 1
82 522 1
83 522 1
86 522 1
87 522 1
93 522 1
97 522 1
98 522 1
99 522 1
101 522 1
102 522 1
106 522 1
107 522 1
110 522 1
114 522 1
117 522 1
119 522 1
120 522 1
123 522 1
126 522 1
127 522 1
128 522 1
129 522 1
130 522 1
134 522 1
36 523 1
39 523 1
41 523 1
42 523 1
45 523 1
47 523 1
48 523 1
50 523 1
52 523 1
55 523 1
57 523 1
58 523 1
60 523 1
63 523 1
65 523 1
67 523 1
70 523 1
75 523 1
77 523 1
80 523 1
82 523 1
84 523 1
85 523 1
88 523 1
94 523 1
96 523 1
97 523 1
100 523 1
101 523 1
102 523 1
106 523 1
107 523 1
108 523 1
109 523 1
111 523 1
118 523 1
122 523 1
123 523 1
124 523 1
127 523 1
128 523 1
129 523 1
130 523 1
134 523 1
36 524 1
37 524 1
38 524 1
48 524 1
49 524 1
50 524 1
51 524 1
52 524 1
53 524 1
55 524 1
56 524 1
57 524 1
59 524 1
63 524 1
65 524 1
66 524 1
67 524 1
70 524 1
77 524 1
80 524 1
81 524 1
83 524 1
85 524 1
86 524 1
87 524 1
88 524 1
89 524 1
90 524 1
91 524 1
92 524 1
94 524 1
98 524 1
99 524 1
102 524 1
106 524 1
113 524 1
114 524 1
115 524 1
117 524 1
121 524 1
122 524 1
123 524 1
125 524 1
126 524 1
128 524 1
129 524 1
130 524 1
134 524 1
36 525 1
41 525 1
42 525 1
43 525 1
46 525 1
48 525 1
52 525 1
57 525 1
62 525 1
64 525 1
65 525 1
66 525 1
68 525 1
70 525 1
74 525 1
79 525 1
80 525 1
81 525 1
83 525 1
85 525 1
90 525 1
92 525 1
93 525 1
95 525 1
100 525 1
102 525 1
110 525 1
111 525 1
114 525 1
117 525 1
118 525 1
119 525 1
120 525 1
125 525 1
128 525 1
129 525 1
130 525 1
134 525 1
38 526 1
39 526 1
41 526 1
42 526 1
46 526 1
47 526 1
48 526 1
50 526 1
51 526 1
56 526 1
59 526 1
60 526 1
64 526 1
65 526 1
67 526 1
74 526 1
75 526 1
76 526 1
77 526 1
80 526 1
81 526 1
82 526 1
83 526 1
85 526 1
86 526 1
87 526 1
88 526 1
92 526 1
93 526 1
94 526 1
96 526 1
98 526 1
99 526 1
100 526 1
108 526 1
109 526 1
110 526 1
111 526 1
114 526 1
117 526 1
118 526 1
119 526 1
120 526 1
122 526 1
124 526 1
126 526 1
134 526 1
36 527 1
38 527 1
45 527 1
46 527 1
51 527 1
52 527 1
55 527 1
56 527 1
57 527 1
58 527 1
59 527 1
63 527 1
64 527 1
65 527 1
69 527 1
72 527 1
74 527 1
75 527 1
76 527 1
78 527 1
80 527 1
81 527 1
82 527 1
84 527 1
85 527 1
87 527 1
90 527 1
92 527 1
95 527 1
97 527 1
98 527 1
99 527 1
101 527 1
102 527 1
106 527 1
107 527 1
110 527 1
114 527 1
117 527 1
119 527 1
120 527 1
123 527 1
126 527 1
127 527 1
128 527 1
134 527 1
36 528 1
37 528 1
38 528 1
48 528 1
49 528 1
50 528 1
51 528 1
52 528 1
53 528 1
55 528 1
56 528 1
57 528 1
59 528 1
63 528 1
66 528 1
67 528 1
69 528 1
70 528 1
72 528 1
74 528 1
75 528 1
76 528 1
78 528 1
81 528 1
82 528 1
86 528 1
91 528 1
93 528 1
95 528 1
98 528 1
99 528 1
102 528 1
106 528 1
113 528 1
114 528 1
115 528 1
117 528 1
121 528 1
122 528 1
123 528 1
125 528 1
126 528 1
128 528 1
134 528 1
37 529 1
45 529 1
46 529 1
48 529 1
49 529 1
50 529 1
53 529 1
58 529 1
64 529 1
65 529 1
67 529 1
71 529 1
72 529 1
73 529 1
74 529 1
76 529 1
77 529 1
78 529 1
79 529 1
82 529 1
83 529 1
84 529 1
85 529 1
86 529 1
87 529 1
91 529 1
94 529 1
95 529 1
97 529 1
101 529 1
107 529 1
110 529 1
113 529 1
115 529 1
119 529 1
120 529 1
121 529 1
122 529 1
125 529 1
127 529 1
129 529 1
130 529 1
134 529 1
36 530 1
37 530 1
41 530 1
42 530 1
43 530 1
45 530 1
49 530 1
50 530 1
52 530 1
53 530 1
57 530 1
58 530 1
62 530 1
65 530 1
67 530 1
68 530 1
70 530 1
72 530 1
73 530 1
74 530 1
78 530 1
79 530 1
82 530 1
83 530 1
87 530 1
88 530 1
89 530 1
90 530 1
91 530 1
95 530 1
97 530 1
100 530 1
101 530 1
102 530 1
107 530 1
111 530 1
113 530 1
114 530 1
115 530 1
117 530 1
118 530 1
121 530 1
122 530 1
127 530 1
128 530 1
134 530 1
36 531 1
41 531 1
42 531 1
43 531 1
46 531 1
48 531 1
52 531 1
57 531 1
62 531 1
64 531 1
65 531 1
66 531 1
68 531 1
69 531 1
71 531 1
75 531 1
76 531 1
77 531 1
78 531 1
83 531 1
85 531 1
86 531 1
88 531 1
89 531 1
92 531 1
93 531 1
94 531 1
95 531 1
100 531 1
102 531 1
110 531 1
111 531 1
114 531 1
117 531 1
118 531 1
119 531 1
120 531 1
125 531 1
128 531 1
129 531 1
130 531 1
134 531 1
38 532 1
39 532 1
41 532 1
42 532 1
46 532 1
47 532 1
48 532 1
50 532 1
51 532 1
56 532 1
59 532 1
60 532 1
64 532 1
65 532 1
66 532 1
67 532 1
71 532 1
77 532 1
78 532 1
79 532 1
83 532 1
84 532 1
86 532 1
87 532 1
90 532 1
91 532 1
92 532 1
94 532 1
96 532 1
98 532 1
99 532 1
100 532 1
108 532 1
109 532 1
110 532 1
111 532 1
114 532 1
117 532 1
118 532 1
119 532 1
120 532 1
122 532 1
124 532 1
126 532 1
134 532 1
37 533 1
45 533 1
46 533 1
48 533 1
49 533 1
50 533 1
53 533 1
58 533 1
64 533 1
66 533 1
67 533 1
69 533 1
70 533 1
72 533 1
73 533 1
75 533 1
83 533 1
84 533 1
89 533 1
90 533 1
91 533 1
92 533 1
93 533 1
94 533 1
97 533 1
101 533 1
107 533 1
110 533 1
113 533 1
115 533 1
119 533 1
120 533 1
121 533 1
122 533 1
125 533 1
127 533 1
129 533 1
130 533 1
134 533 1
36 534 1
37 534 1
38 534 1
39 534 1
43 534 1
45 534 1
46 534 1
47 534 1
48 534 1
49 534 1
51 534 1
52 534 1
53 534 1
56 534 1
57 534 1
58 534 1
59 534 1
60 534 1
62 534 1
64 534 1
66 534 1
69 534 1
70 534 1
71 534 1
72 534 1
73 534 1
75 534 1
76 534 1
77 534 1
79 534 1
80 534 1
85 534 1
87 534 1
90 534 1
92 534 1
93 534 1
96 534 1
97 534 1
98 534 1
99 534 1
101 534 1
102 534 1
107 534 1
108 534 1
109 534 1
110 534 1
113 534 1
115 534 1
119 534 1
120 534 1
121 534 1
124 534 1
126 534 1
127 534 1
128 534 1
134 534 1
37 535 1
38 535 1
41 535 1
42 535 1
43 535 1
46 535 1
49 535 1
50 535 1
51 535 1
53 535 1
55 535 1
56 535 1
59 535 1
62 535 1
63 535 1
64 535 1
67 535 1
73 535 1
74 535 1
76 535 1
80 535 1
81 535 1
84 535 1
86 535 1
87 535 1
89 535 1
93 535 1
98 535 1
99 535 1
100 535 1
106 535 1
110 535 1
111 535 1
113 535 1
115 535 1
118 535 1
119 535 1
120 535 1
121 535 1
122 535 1
123 535 1
126 535 1
129 535 1
130 535 1
134 535 1
36 536 1
37 536 1
39 536 1
41 536 1
42 536 1
46 536 1
47 536 1
49 536 1
52 536 1
53 536 1
55 536 1
57 536 1
60 536 1
63 536 1
64 536 1
68 536 1
69 536 1
72 536 1
73 536 1
74 536 1
77 536 1
80 536 1
81 536 1
85 536 1
89 536 1
91 536 1
92 536 1
94 536 1
95 536 1
96 536 1
100 536 1
102 536 1
106 536 1
108 536 1
109 536 1
110 536 1
111 536 1
113 536 1
115 536 1
118 536 1
119 536 1
120 536 1
121 536 1
123 536 1
124 536 1
125 536 1
128 536 1
134 536 1
36 537 1
38 537 1
45 537 1
46 537 1
51 537 1
52 537 1
55 537 1
56 537 1
57 537 1
58 537 1
59 537 1
63 537 1
64 537 1
65 537 1
68 537 1
71 537 1
75 537 1
78 537 1
79 537 1
80 537 1
81 537 1
82 537 1
84 537 1
86 537 1
87 537 1
88 537 1
90 537 1
92 537 1
94 537 1
97 537 1
98 537 1
99 537 1
101 537 1
102 537 1
106 537 1
107 537 1
110 537 1
114 537 1
117 537 1
119 537 1
120 537 1
123 537 1
126 537 1
127 537 1
128 537 1
129 537 1
130 537 1
134 537 1
36 538 1
39 538 1
41 538 1
42 538 1
45 538 1
47 538 1
48 538 1
50 538 1
52 538 1
55 538 1
57 538 1
58 538 1
60 538 1
63 538 1
65 538 1
66 538 1
67 538 1
70 538 1
73 538 1
76 538 1
77 538 1
78 538 1
79 538 1
81 538 1
82 538 1
86 538 1
87 538 1
88 538 1
90 538 1
92 538 1
93 538 1
94 538 1
95 538 1
96 538 1
97 538 1
100 538 1
101 538 1
102 538 1
106 538 1
107 538 1
108 538 1
109 538 1
111 538 1
118 538 1
122 538 1
123 538 1
124 538 1
127 538 1
128 538 1
129 538 1
130 538 1
134 538 1
37 539 1
38 539 1
41 539 1
42 539 1
43 539 1
46 539 1
49 539 1
50 539 1
51 539 1
53 539 1
55 539 1
56 539 1
59 539 1
62 539 1
63 539 1
64 539 1
65 539 1
67 539 1
71 539 1
72 539 1
73 539 1
74 539 1
76 539 1
82 539 1
84 539 1
86 539 1
88 539 1
89 539 1
90 539 1
91 539 1
92 539 1
93 539 1
94 539 1
98 539 1
99 539 1
100 539 1
106 539 1
110 539 1
111 539 1
113 539 1
115 539 1
118 539 1
119 539 1
120 539 1
121 539 1
122 539 1
123 539 1
126 539 1
134 539 1
39 540 1
43 540 1
45 540 1
46 540 1
47 540 1
50 540 1
55 540 1
58 540 1
60 540 1
62 540 1
63 540 1
64 540 1
65 540 1
67 540 1
69 540 1
70 540 1
75 540 1
76 540 1
79 540 1
80 540 1
82 540 1
83 540 1
84 540 1
86 540 1
88 540 1
89 540 1
90 540 1
92 540 1
93 540 1
94 540 1
95 540 1
96 540 1
97 540 1
101 540 1
106 540 1
107 540 1
108 540 1
109 540 1
110 540 1
114 540 1
117 540 1
119 540 1
120 540 1
122 540 1
123 540 1
124 540 1
125 540 1
127 540 1
134 540 1
37 541 1
45 541 1
46 541 1
48 541 1
49 541 1
50 541 1
53 541 1
58 541 1
64 541 1
67 541 1
68 541 1
69 541 1
70 541 1
72 541 1
73 541 1
74 541 1
76 541 1
77 541 1
78 541 1
80 541 1
81 541 1
83 541 1
85 541 1
88 541 1
90 541 1
91 541 1
93 541 1
97 541 1
101 541 1
107 541 1
110 541 1
113 541 1
115 541 1
119 541 1
120 541 1
121 541 1
122 541 1
125 541 1
127 541 1
130 541 1
134 541 1
37 542 1
38 542 1
39 542 1
41 542 1
42 542 1
45 542 1
47 542 1
49 542 1
51 542 1
53 542 1
56 542 1
58 542 1
59 542 1
60 542 1
65 542 1
69 542 1
71 542 1
72 542 1
73 542 1
74 542 1
75 542 1
79 542 1
81 542 1
83 542 1
85 542 1
88 542 1
89 542 1
91 542 1
93 542 1
96 542 1
97 542 1
98 542 1
99 542 1
100 542 1
101 542 1
107 542 1
108 542 1
109 542 1
111 542 1
113 542 1
114 542 1
115 542 1
117 542 1
118 542 1
121 542 1
124 542 1
125 542 1
126 542 1
127 542 1
129 542 1
130 542 1
131 542 1
134 542 1
36 543 1
37 543 1
38 543 1
48 543 1
49 543 1
50 543 1
51 543 1
52 543 1
53 543 1
55 543 1
56 543 1
57 543 1
59 543 1
63 543 1
66 543 1
67 543 1
68 543 1
70 543 1
72 543 1
73 543 1
75 543 1
77 543 1
78 543 1
80 543 1
82 543 1
83 543 1
84 543 1
85 543 1
86 543 1
87 543 1
92 543 1
95 543 1
98 543 1
99 543 1
102 543 1
106 543 1
113 543 1
114 543 1
115 543 1
117 543 1
121 543 1
122 543 1
123 543 1
125 543 1
126 543 1
128 543 1
130 543 1
134 543 1
65 544 1
69 544 1
70 544 1
71 544 1
72 544 1
75 544 1
76 544 1
79 544 1
81 544 1
83 544 1
87 544 1
88 544 1
89 544 1
91 544 1
94 544 1
131 544 1
134 544 1
36 545 1
37 545 1
41 545 1
42 545 1
43 545 1
45 545 1
49 545 1
50 545 1
52 545 1
53 545 1
57 545 1
58 545 1
62 545 1
65 545 1
66 545 1
67 545 1
69 545 1
70 545 1
71 545 1
72 545 1
74 545 1
75 545 1
77 545 1
80 545 1
83 545 1
84 545 1
87 545 1
88 545 1
90 545 1
91 545 1
94 545 1
97 545 1
100 545 1
101 545 1
102 545 1
107 545 1
111 545 1
113 545 1
114 545 1
115 545 1
117 545 1
118 545 1
121 545 1
122 545 1
127 545 1
128 545 1
130 545 1
134 545 1
38 546 1
39 546 1
41 546 1
42 546 1
46 546 1
47 546 1
48 546 1
50 546 1
51 546 1
56 546 1
59 546 1
60 546 1
64 546 1
66 546 1
67 546 1
70 546 1
73 546 1
75 546 1
76 546 1
77 546 1
78 546 1
79 546 1
80 546 1
81 546 1
84 546 1
87 546 1
88 546 1
89 546 1
90 546 1
93 546 1
95 546 1
96 546 1
98 546 1
99 546 1
100 546 1
108 546 1
109 546 1
110 546 1
111 546 1
114 546 1
117 546 1
118 546 1
119 546 1
120 546 1
122 546 1
124 546 1
126 546 1
131 546 1
134 546 1
36 547 1
38 547 1
45 547 1
46 547 1
51 547 1
52 547 1
55 547 1
56 547 1
57 547 1
58 547 1
59 547 1
63 547 1
64 547 1
65 547 1
66 547 1
70 547 1
73 547 1
74 547 1
76 547 1
78 547 1
79 547 1
81 547 1
83 547 1
87 547 1
88 547 1
89 547 1
93 547 1
95 547 1
97 547 1
98 547 1
99 547 1
101 547 1
102 547 1
106 547 1
107 547 1
110 547 1
114 547 1
117 547 1
119 547 1
120 547 1
123 547 1
126 547 1
127 547 1
128 547 1
129 547 1
134 547 1
36 548 1
39 548 1
41 548 1
42 548 1
45 548 1
47 548 1
48 548 1
50 548 1
52 548 1
55 548 1
57 548 1
58 548 1
60 548 1
63 548 1
65 548 1
66 548 1
67 548 1
69 548 1
70 548 1
71 548 1
73 548 1
76 548 1
78 548 1
79 548 1
83 548 1
85 548 1
86 548 1
88 548 1
89 548 1
95 548 1
96 548 1
97 548 1
100 548 1
101 548 1
102 548 1
106 548 1
107 548 1
108 548 1
109 548 1
111 548 1
118 548 1
122 548 1
123 548 1
124 548 1
127 548 1
128 548 1
129 548 1
130 548 1
131 548 1
134 548 1
37 549 1
45 549 1
46 549 1
48 549 1
49 549 1
50 549 1
53 549 1
58 549 1
64 549 1
65 549 1
66 549 1
67 549 1
71 549 1
72 549 1
73 549 1
74 549 1
76 549 1
77 549 1
78 549 1
79 549 1
82 549 1
83 549 1
84 549 1
85 549 1
86 549 1
87 549 1
91 549 1
94 549 1
95 549 1
97 549 1
101 549 1
107 549 1
110 549 1
113 549 1
115 549 1
119 549 1
120 549 1
121 549 1
122 549 1
125 549 1
127 549 1
130 549 1
134 549 1
36 550 1
37 550 1
41 550 1
42 550 1
43 550 1
45 550 1
49 550 1
50 550 1
52 550 1
53 550 1
57 550 1
58 550 1
62 550 1
65 550 1
67 550 1
70 550 1
72 550 1
73 550 1
74 550 1
78 550 1
79 550 1
82 550 1
83 550 1
87 550 1
88 550 1
89 550 1
90 550 1
91 550 1
95 550 1
97 550 1
100 550 1
101 550 1
102 550 1
107 550 1
111 550 1
113 550 1
114 550 1
115 550 1
117 550 1
118 550 1
121 550 1
122 550 1
127 550 1
128 550 1
131 550 1
134 550 1
36 551 1
41 551 1
42 551 1
43 551 1
46 551 1
48 551 1
52 551 1
57 551 1
62 551 1
64 551 1
65 551 1
66 551 1
68 551 1
69 551 1
71 551 1
73 551 1
75 551 1
76 551 1
77 551 1
78 551 1
83 551 1
85 551 1
86 551 1
88 551 1
89 551 1
92 551 1
93 551 1
94 551 1
95 551 1
100 551 1
102 551 1
110 551 1
111 551 1
114 551 1
117 551 1
118 551 1
119 551 1
120 551 1
125 551 1
128 551 1
129 551 1
134 551 1
38 552 1
41 552 1
42 552 1
43 552 1
45 552 1
48 552 1
51 552 1
55 552 1
56 552 1
58 552 1
59 552 1
62 552 1
63 552 1
66 552 1
68 552 1
69 552 1
71 552 1
73 552 1
74 552 1
75 552 1
76 552 1
77 552 1
79 552 1
82 552 1
84 552 1
85 552 1
87 552 1
88 552 1
89 552 1
90 552 1
92 552 1
95 552 1
97 552 1
98 552 1
99 552 1
100 552 1
101 552 1
106 552 1
107 552 1
111 552 1
118 552 1
123 552 1
125 552 1
126 552 1
127 552 1
131 552 1
134 552 1
36 553 1
37 553 1
38 553 1
39 553 1
43 553 1
45 553 1
46 553 1
47 553 1
48 553 1
49 553 1
51 553 1
52 553 1
53 553 1
56 553 1
57 553 1
58 553 1
59 553 1
60 553 1
62 553 1
64 553 1
65 553 1
70 553 1
71 553 1
74 553 1
77 553 1
80 553 1
87 553 1
88 553 1
89 553 1
92 553 1
93 553 1
96 553 1
97 553 1
98 553 1
99 553 1
101 553 1
102 553 1
107 553 1
108 553 1
109 553 1
110 553 1
113 553 1
115 553 1
119 553 1
120 553 1
121 553 1
124 553 1
126 553 1
127 553 1
128 553 1
129 553 1
134 553 1
38 554 1
41 554 1
42 554 1
43 554 1
45 554 1
48 554 1
51 554 1
55 554 1
56 554 1
58 554 1
59 554 1
62 554 1
63 554 1
66 554 1
68 554 1
69 554 1
70 554 1
71 554 1
72 554 1
73 554 1
75 554 1
76 554 1
80 554 1
81 554 1
82 554 1
83 554 1
86 554 1
87 554 1
88 554 1
89 554 1
97 554 1
98 554 1
99 554 1
100 554 1
101 554 1
106 554 1
107 554 1
111 554 1
118 554 1
123 554 1
125 554 1
126 554 1
127 554 1
129 554 1
130 554 1
131 554 1
134 554 1
36 555 1
41 555 1
42 555 1
43 555 1
46 555 1
48 555 1
52 555 1
57 555 1
62 555 1
64 555 1
66 555 1
69 555 1
70 555 1
71 555 1
72 555 1
76 555 1
78 555 1
80 555 1
81 555 1
84 555 1
85 555 1
86 555 1
87 555 1
89 555 1
91 555 1
94 555 1
95 555 1
100 555 1
102 555 1
110 555 1
111 555 1
114 555 1
117 555 1
118 555 1
119 555 1
120 555 1
125 555 1
128 555 1
130 555 1
134 555 1
36 556 1
41 556 1
42 556 1
43 556 1
46 556 1
48 556 1
52 556 1
57 556 1
62 556 1
64 556 1
68 556 1
69 556 1
74 556 1
75 556 1
78 556 1
79 556 1
81 556 1
83 556 1
84 556 1
86 556 1
87 556 1
90 556 1
92 556 1
100 556 1
102 556 1
110 556 1
111 556 1
114 556 1
117 556 1
118 556 1
119 556 1
120 556 1
125 556 1
128 556 1
129 556 1
130 556 1
131 556 1
134 556 1
36 557 1
37 557 1
41 557 1
42 557 1
43 557 1
45 557 1
49 557 1
50 557 1
52 557 1
53 557 1
57 557 1
58 557 1
62 557 1
65 557 1
67 557 1
69 557 1
70 557 1
71 557 1
73 557 1
76 557 1
79 557 1
82 557 1
84 557 1
86 557 1
88 557 1
92 557 1
93 557 1
94 557 1
95 557 1
97 557 1
100 557 1
101 557 1
102 557 1
107 557 1
111 557 1
113 557 1
114 557 1
115 557 1
117 557 1
118 557 1
121 557 1
122 557 1
127 557 1
128 557 1
129 557 1
134 557 1
38 558 1
39 558 1
41 558 1
42 558 1
46 558 1
47 558 1
48 558 1
50 558 1
51 558 1
56 558 1
59 558 1
60 558 1
64 558 1
66 558 1
67 558 1
69 558 1
71 558 1
75 558 1
79 558 1
80 558 1
83 558 1
84 558 1
86 558 1
89 558 1
90 558 1
92 558 1
95 558 1
96 558 1
98 558 1
99 558 1
100 558 1
108 558 1
109 558 1
110 558 1
111 558 1
114 558 1
117 558 1
118 558 1
119 558 1
120 558 1
122 558 1
124 558 1
126 558 1
131 558 1
134 558 1
36 559 1
38 559 1
45 559 1
46 559 1
51 559 1
52 559 1
55 559 1
56 559 1
57 559 1
58 559 1
59 559 1
63 559 1
64 559 1
65 559 1
70 559 1
72 559 1
73 559 1
74 559 1
75 559 1
80 559 1
81 559 1
83 559 1
84 559 1
85 559 1
88 559 1
91 559 1
92 559 1
93 559 1
97 559 1
98 559 1
99 559 1
101 559 1
102 559 1
106 559 1
107 559 1
110 559 1
114 559 1
117 559 1
119 559 1
120 559 1
123 559 1
126 559 1
127 559 1
128 559 1
129 559 1
134 559 1
36 560 1
39 560 1
41 560 1
42 560 1
45 560 1
47 560 1
48 560 1
50 560 1
52 560 1
55 560 1
57 560 1
58 560 1
60 560 1
63 560 1
66 560 1
67 560 1
68 560 1
69 560 1
71 560 1
73 560 1
74 560 1
75 560 1
76 560 1
78 560 1
79 560 1
80 560 1
81 560 1
82 560 1
85 560 1
94 560 1
96 560 1
97 560 1
100 560 1
101 560 1
102 560 1
106 560 1
107 560 1
108 560 1
109 560 1
111 560 1
118 560 1
122 560 1
123 560 1
124 560 1
127 560 1
128 560 1
129 560 1
130 560 1
131 560 1
134 560 1
39 561 1
43 561 1
45 561 1
46 561 1
47 561 1
50 561 1
55 561 1
58 561 1
60 561 1
62 561 1
63 561 1
64 561 1
66 561 1
67 561 1
69 561 1
72 561 1
78 561 1
81 561 1
82 561 1
83 561 1
85 561 1
86 561 1
88 561 1
90 561 1
94 561 1
95 561 1
96 561 1
97 561 1
101 561 1
106 561 1
107 561 1
108 561 1
109 561 1
110 561 1
114 561 1
117 561 1
119 561 1
120 561 1
122 561 1
123 561 1
124 561 1
125 561 1
127 561 1
130 561 1
134 561 1
38 562 1
39 562 1
41 562 1
42 562 1
46 562 1
47 562 1
48 562 1
50 562 1
51 562 1
56 562 1
59 562 1
60 562 1
64 562 1
65 562 1
66 562 1
67 562 1
69 562 1
70 562 1
71 562 1
73 562 1
74 562 1
75 562 1
83 562 1
84 562 1
85 562 1
86 562 1
87 562 1
88 562 1
90 562 1
91 562 1
93 562 1
94 562 1
95 562 1
96 562 1
98 562 1
99 562 1
100 562 1
108 562 1
109 562 1
110 562 1
111 562 1
114 562 1
117 562 1
118 562 1
119 562 1
120 562 1
122 562 1
124 562 1
126 562 1
131 562 1
134 562 1
37 563 1
45 563 1
46 563 1
48 563 1
49 563 1
50 563 1
53 563 1
58 563 1
64 563 1
65 563 1
67 563 1
69 563 1
70 563 1
71 563 1
73 563 1
74 563 1
75 563 1
76 563 1
80 563 1
82 563 1
85 563 1
89 563 1
90 563 1
91 563 1
93 563 1
94 563 1
95 563 1
97 563 1
101 563 1
107 563 1
110 563 1
113 563 1
115 563 1
119 563 1
120 563 1
121 563 1
122 563 1
125 563 1
127 563 1
129 563 1
134 563 1
36 564 1
38 564 1
45 564 1
46 564 1
51 564 1
52 564 1
55 564 1
56 564 1
57 564 1
58 564 1
59 564 1
63 564 1
64 564 1
65 564 1
68 564 1
69 564 1
70 564 1
71 564 1
73 564 1
74 564 1
76 564 1
77 564 1
80 564 1
81 564 1
82 564 1
84 564 1
85 564 1
86 564 1
87 564 1
88 564 1
90 564 1
93 564 1
94 564 1
95 564 1
97 564 1
98 564 1
99 564 1
101 564 1
102 564 1
106 564 1
107 564 1
110 564 1
114 564 1
117 564 1
119 564 1
120 564 1
123 564 1
126 564 1
127 564 1
128 564 1
129 564 1
130 564 1
131 564 1
134 564 1
36 565 1
39 565 1
41 565 1
42 565 1
45 565 1
47 565 1
48 565 1
50 565 1
52 565 1
55 565 1
57 565 1
58 565 1
60 565 1
63 565 1
67 565 1
70 565 1
71 565 1
72 565 1
73 565 1
74 565 1
75 565 1
77 565 1
78 565 1
79 565 1
80 565 1
81 565 1
83 565 1
85 565 1
86 565 1
87 565 1
88 565 1
90 565 1
93 565 1
94 565 1
96 565 1
97 565 1
100 565 1
101 565 1
102 565 1
106 565 1
107 565 1
108 565 1
109 565 1
111 565 1
118 565 1
122 565 1
123 565 1
124 565 1
127 565 1
128 565 1
129 565 1
134 565 1
38 566 1
39 566 1
41 566 1
42 566 1
46 566 1
47 566 1
48 566 1
50 566 1
51 566 1
56 566 1
59 566 1
60 566 1
64 566 1
66 566 1
67 566 1
68 566 1
71 566 1
73 566 1
74 566 1
75 566 1
76 566 1
79 566 1
81 566 1
86 566 1
89 566 1
90 566 1
91 566 1
93 566 1
95 566 1
96 566 1
98 566 1
99 566 1
100 566 1
108 566 1
109 566 1
110 566 1
111 566 1
114 566 1
117 566 1
118 566 1
119 566 1
120 566 1
122 566 1
124 566 1
126 566 1
129 566 1
130 566 1
131 566 1
134 566 1
36 567 1
37 567 1
38 567 1
48 567 1
49 567 1
50 567 1
51 567 1
52 567 1
53 567 1
55 567 1
56 567 1
57 567 1
59 567 1
63 567 1
65 567 1
67 567 1
69 567 1
72 567 1
77 567 1
78 567 1
80 567 1
82 567 1
85 567 1
86 567 1
91 567 1
92 567 1
93 567 1
95 567 1
98 567 1
99 567 1
102 567 1
106 567 1
113 567 1
114 567 1
115 567 1
117 567 1
121 567 1
122 567 1
123 567 1
125 567 1
126 567 1
128 567 1
130 567 1
134 567 1
36 568 1
39 568 1
41 568 1
42 568 1
45 568 1
47 568 1
48 568 1
50 568 1
52 568 1
55 568 1
57 568 1
58 568 1
60 568 1
63 568 1
67 568 1
74 568 1
76 568 1
77 568 1
81 568 1
83 568 1
84 568 1
85 568 1
87 568 1
88 568 1
89 568 1
95 568 1
96 568 1
97 568 1
100 568 1
101 568 1
102 568 1
106 568 1
107 568 1
108 568 1
109 568 1
111 568 1
118 568 1
122 568 1
123 568 1
124 568 1
127 568 1
128 568 1
129 568 1
130 568 1
131 568 1
134 568 1
36 569 1
38 569 1
39 569 1
43 569 1
47 569 1
50 569 1
51 569 1
52 569 1
56 569 1
57 569 1
59 569 1
60 569 1
62 569 1
66 569 1
67 569 1
69 569 1
70 569 1
71 569 1
74 569 1
75 569 1
76 569 1
79 569 1
80 569 1
83 569 1
85 569 1
86 569 1
91 569 1
92 569 1
94 569 1
96 569 1
98 569 1
99 569 1
102 569 1
108 569 1
109 569 1
122 569 1
124 569 1
125 569 1
126 569 1
128 569 1
129 569 1
134 569 1
37 570 1
38 570 1
41 570 1
42 570 1
43 570 1
46 570 1
49 570 1
50 570 1
51 570 1
53 570 1
55 570 1
56 570 1
59 570 1
62 570 1
63 570 1
64 570 1
67 570 1
70 570 1
71 570 1
72 570 1
73 570 1
74 570 1
76 570 1
80 570 1
81 570 1
84 570 1
85 570 1
86 570 1
90 570 1
91 570 1
92 570 1
94 570 1
98 570 1
99 570 1
100 570 1
106 570 1
110 570 1
111 570 1
113 570 1
115 570 1
118 570 1
119 570 1
120 570 1
121 570 1
122 570 1
123 570 1
126 570 1
129 570 1
130 570 1
131 570 1
134 570 1
36 571 1
41 571 1
42 571 1
43 571 1
46 571 1
48 571 1
52 571 1
57 571 1
62 571 1
64 571 1
65 571 1
66 571 1
68 571 1
70 571 1
71 571 1
73 571 1
75 571 1
76 571 1
77 571 1
79 571 1
84 571 1
85 571 1
86 571 1
87 571 1
89 571 1
91 571 1
92 571 1
95 571 1
100 571 1
102 571 1
110 571 1
111 571 1
114 571 1
117 571 1
118 571 1
119 571 1
120 571 1
125 571 1
128 571 1
129 571 1
130 571 1
36 572 1
41 572 1
42 572 1
43 572 1
46 572 1
48 572 1
52 572 1
57 572 1
62 572 1
64 572 1
65 572 1
66 572 1
68 572 1
70 572 1
71 572 1
73 572 1
75 572 1
76 572 1
77 572 1
79 572 1
84 572 1
85 572 1
86 572 1
87 572 1
89 572 1
91 572 1
92 572 1
95 572 1
100 572 1
102 572 1
110 572 1
111 572 1
114 572 1
117 572 1
118 572 1
119 572 1
120 572 1
125 572 1
128 572 1
129 572 1
130 572 1
135 601 1
132 602 1
136 603 1
36 604 1
41 604 1
42 604 1
43 604 1
46 604 1
48 604 1
52 604 1
57 604 1
62 604 1
64 604 1
100 604 1
102 604 1
110 604 1
111 604 1
114 604 1
117 604 1
118 604 1
119 604 1
120 604 1
125 604 1
128 604 1
135 604 1
136 604 1
133 605 1
38 606 1
39 606 1
41 606 1
42 606 1
46 606 1
47 606 1
48 606 1
50 606 1
51 606 1
56 606 1
59 606 1
60 606 1
64 606 1
67 606 1
96 606 1
98 606 1
99 606 1
100 606 1
108 606 1
109 606 1
110 606 1
111 606 1
114 606 1
117 606 1
118 606 1
119 606 1
120 606 1
122 606 1
124 606 1
126 606 1
135 606 1
136 606 1
37 607 1
38 607 1
41 607 1
42 607 1
43 607 1
46 607 1
49 607 1
50 607 1
51 607 1
53 607 1
55 607 1
56 607 1
59 607 1
62 607 1
63 607 1
64 607 1
67 607 1
98 607 1
99 607 1
100 607 1
106 607 1
110 607 1
111 607 1
113 607 1
115 607 1
118 607 1
119 607 1
120 607 1
121 607 1
122 607 1
123 607 1
126 607 1
132 607 1
136 607 1
38 608 1
41 608 1
42 608 1
43 608 1
45 608 1
48 608 1
51 608 1
55 608 1
56 608 1
58 608 1
59 608 1
62 608 1
63 608 1
97 608 1
98 608 1
99 608 1
100 608 1
101 608 1
106 608 1
107 608 1
111 608 1
118 608 1
123 608 1
125 608 1
126 608 1
127 608 1
132 608 1
36 609 1
37 609 1
41 609 1
42 609 1
43 609 1
45 609 1
49 609 1
50 609 1
52 609 1
53 609 1
57 609 1
58 609 1
62 609 1
67 609 1
97 609 1
100 609 1
101 609 1
102 609 1
107 609 1
111 609 1
113 609 1
114 609 1
115 609 1
117 609 1
118 609 1
121 609 1
122 609 1
127 609 1
128 609 1
132 609 1
133 609 1
37 610 1
39 610 1
43 610 1
47 610 1
48 610 1
49 610 1
53 610 1
55 610 1
60 610 1
62 610 1
63 610 1
96 610 1
106 610 1
108 610 1
109 610 1
113 610 1
114 610 1
115 610 1
117 610 1
121 610 1
123 610 1
124 610 1
132 610 1
133 610 1
135 610 1
38 611 1
39 611 1
41 611 1
42 611 1
46 611 1
47 611 1
48 611 1
50 611 1
51 611 1
56 611 1
59 611 1
60 611 1
64 611 1
67 611 1
96 611 1
98 611 1
99 611 1
100 611 1
108 611 1
109 611 1
110 611 1
111 611 1
114 611 1
117 611 1
118 611 1
119 611 1
120 611 1
122 611 1
124 611 1
126 611 1
132 611 1
133 611 1
135 611 1
136 611 1
36 612 1
37 612 1
41 612 1
42 612 1
43 612 1
45 612 1
49 612 1
50 612 1
52 612 1
53 612 1
57 612 1
58 612 1
62 612 1
67 612 1
97 612 1
100 612 1
101 612 1
102 612 1
107 612 1
111 612 1
113 612 1
114 612 1
115 612 1
117 612 1
118 612 1
121 612 1
122 612 1
127 612 1
128 612 1
133 612 1
136 612 1
37 613 1
39 613 1
43 613 1
47 613 1
48 613 1
49 613 1
53 613 1
55 613 1
60 613 1
62 613 1
63 613 1
96 613 1
106 613 1
108 613 1
109 613 1
113 613 1
114 613 1
115 613 1
117 613 1
121 613 1
123 613 1
124 613 1
133 613 1
135 613 1
136 613 1
37 614 1
38 614 1
39 614 1
41 614 1
42 614 1
45 614 1
47 614 1
49 614 1
51 614 1
53 614 1
56 614 1
58 614 1
59 614 1
60 614 1
96 614 1
97 614 1
98 614 1
99 614 1
100 614 1
101 614 1
107 614 1
108 614 1
109 614 1
111 614 1
113 614 1
114 614 1
115 614 1
117 614 1
118 614 1
121 614 1
124 614 1
125 614 1
126 614 1
127 614 1
132 614 1
135 614 1
136 614 1
36 615 1
41 615 1
42 615 1
43 615 1
46 615 1
48 615 1
52 615 1
57 615 1
62 615 1
64 615 1
100 615 1
102 615 1
110 615 1
111 615 1
114 615 1
117 615 1
118 615 1
119 615 1
120 615 1
125 615 1
128 615 1
136 615 1
36 616 1
41 616 1
42 616 1
43 616 1
46 616 1
48 616 1
52 616 1
57 616 1
62 616 1
64 616 1
100 616 1
102 616 1
110 616 1
111 616 1
114 616 1
117 616 1
118 616 1
119 616 1
120 616 1
125 616 1
128 616 1
132 616 1
36 617 1
38 617 1
39 617 1
43 617 1
47 617 1
50 617 1
51 617 1
52 617 1
56 617 1
57 617 1
59 617 1
60 617 1
62 617 1
67 617 1
96 617 1
98 617 1
99 617 1
102 617 1
108 617 1
109 617 1
122 617 1
124 617 1
125 617 1
126 617 1
128 617 1
135 617 1
37 618 1
38 618 1
39 618 1
41 618 1
42 618 1
45 618 1
47 618 1
49 618 1
51 618 1
53 618 1
56 618 1
58 618 1
59 618 1
60 618 1
96 618 1
97 618 1
98 618 1
99 618 1
100 618 1
101 618 1
107 618 1
108 618 1
109 618 1
111 618 1
113 618 1
114 618 1
115 618 1
117 618 1
118 618 1
121 618 1
124 618 1
125 618 1
126 618 1
127 618 1
132 618 1
135 618 1
136 618 1
38 619 1
41 619 1
42 619 1
43 619 1
45 619 1
48 619 1
51 619 1
55 619 1
56 619 1
58 619 1
59 619 1
62 619 1
63 619 1
97 619 1
98 619 1
99 619 1
100 619 1
101 619 1
106 619 1
107 619 1
111 619 1
118 619 1
123 619 1
125 619 1
126 619 1
127 619 1
132 619 1
133 619 1
38 620 1
39 620 1
41 620 1
42 620 1
46 620 1
47 620 1
48 620 1
50 620 1
51 620 1
56 620 1
59 620 1
60 620 1
64 620 1
67 620 1
96 620 1
98 620 1
99 620 1
100 620 1
108 620 1
109 620 1
110 620 1
111 620 1
114 620 1
117 620 1
118 620 1
119 620 1
120 620 1
122 620 1
124 620 1
126 620 1
133 620 1
136 620 1
36 621 1
37 621 1
38 621 1
39 621 1
43 621 1
45 621 1
46 621 1
47 621 1
48 621 1
49 621 1
51 621 1
52 621 1
53 621 1
56 621 1
57 621 1
58 621 1
59 621 1
60 621 1
62 621 1
64 621 1
96 621 1
97 621 1
98 621 1
99 621 1
101 621 1
102 621 1
107 621 1
108 621 1
109 621 1
110 621 1
113 621 1
115 621 1
119 621 1
120 621 1
121 621 1
124 621 1
126 621 1
127 621 1
128 621 1
135 621 1
36 622 1
38 622 1
45 622 1
46 622 1
51 622 1
52 622 1
55 622 1
56 622 1
57 622 1
58 622 1
59 622 1
63 622 1
64 622 1
97 622 1
98 622 1
99 622 1
101 622 1
102 622 1
106 622 1
107 622 1
110 622 1
114 622 1
117 622 1
119 622 1
120 622 1
123 622 1
126 622 1
127 622 1
128 622 1
132 622 1
133 622 1
136 622 1
36 623 1
37 623 1
41 623 1
42 623 1
43 623 1
45 623 1
49 623 1
50 623 1
52 623 1
53 623 1
57 623 1
58 623 1
62 623 1
67 623 1
97 623 1
100 623 1
101 623 1
102 623 1
107 623 1
111 623 1
113 623 1
114 623 1
115 623 1
117 623 1
118 623 1
121 623 1
122 623 1
127 623 1
128 623 1
132 623 1
133 623 1
36 624 1
38 624 1
39 624 1
43 624 1
47 624 1
50 624 1
51 624 1
52 624 1
56 624 1
57 624 1
59 624 1
60 624 1
62 624 1
67 624 1
96 624 1
98 624 1
99 624 1
102 624 1
108 624 1
109 624 1
122 624 1
124 624 1
125 624 1
126 624 1
128 624 1
135 624 1
136 624 1
36 625 1
41 625 1
42 625 1
43 625 1
46 625 1
48 625 1
52 625 1
57 625 1
62 625 1
64 625 1
100 625 1
102 625 1
110 625 1
111 625 1
114 625 1
117 625 1
118 625 1
119 625 1
120 625 1
125 625 1
128 625 1
136 625 1
36 626 1
37 626 1
38 626 1
39 626 1
43 626 1
45 626 1
46 626 1
47 626 1
48 626 1
49 626 1
51 626 1
52 626 1
53 626 1
56 626 1
57 626 1
58 626 1
59 626 1
60 626 1
62 626 1
64 626 1
96 626 1
97 626 1
98 626 1
99 626 1
101 626 1
102 626 1
107 626 1
108 626 1
109 626 1
110 626 1
113 626 1
115 626 1
119 626 1
120 626 1
121 626 1
124 626 1
126 626 1
127 626 1
128 626 1
132 626 1
133 626 1
135 626 1
39 627 1
43 627 1
45 627 1
46 627 1
47 627 1
50 627 1
55 627 1
58 627 1
60 627 1
62 627 1
63 627 1
64 627 1
67 627 1
96 627 1
97 627 1
101 627 1
106 627 1
107 627 1
108 627 1
109 627 1
110 627 1
114 627 1
117 627 1
119 627 1
120 627 1
122 627 1
123 627 1
124 627 1
125 627 1
127 627 1
132 627 1
135 627 1
37 628 1
45 628 1
46 628 1
48 628 1
49 628 1
50 628 1
53 628 1
58 628 1
64 628 1
67 628 1
97 628 1
101 628 1
107 628 1
110 628 1
113 628 1
115 628 1
119 628 1
120 628 1
121 628 1
122 628 1
125 628 1
127 628 1
132 628 1
133 628 1
136 628 1
36 629 1
37 629 1
38 629 1
48 629 1
49 629 1
50 629 1
51 629 1
52 629 1
53 629 1
55 629 1
56 629 1
57 629 1
59 629 1
63 629 1
67 629 1
98 629 1
99 629 1
102 629 1
106 629 1
113 629 1
114 629 1
115 629 1
117 629 1
121 629 1
122 629 1
123 629 1
125 629 1
126 629 1
128 629 1
133 629 1
36 631 1
37 631 1
41 631 1
42 631 1
43 631 1
45 631 1
49 631 1
50 631 1
52 631 1
53 631 1
57 631 1
58 631 1
62 631 1
67 631 1
97 631 1
100 631 1
101 631 1
102 631 1
107 631 1
111 631 1
113 631 1
114 631 1
115 631 1
117 631 1
118 631 1
121 631 1
122 631 1
127 631 1
128 631 1
133 631 1
38 632 1
39 632 1
41 632 1
42 632 1
46 632 1
47 632 1
48 632 1
50 632 1
51 632 1
56 632 1
59 632 1
60 632 1
64 632 1
67 632 1
96 632 1
98 632 1
99 632 1
100 632 1
108 632 1
109 632 1
110 632 1
111 632 1
114 632 1
117 632 1
118 632 1
119 632 1
120 632 1
122 632 1
124 632 1
126 632 1
132 632 1
135 632 1
136 632 1
36 633 1
37 633 1
41 633 1
42 633 1
43 633 1
45 633 1
49 633 1
50 633 1
52 633 1
53 633 1
57 633 1
58 633 1
62 633 1
67 633 1
97 633 1
100 633 1
101 633 1
102 633 1
107 633 1
111 633 1
113 633 1
114 633 1
115 633 1
117 633 1
118 633 1
121 633 1
122 633 1
127 633 1
128 633 1
132 633 1
136 633 1
36 634 1
37 634 1
41 634 1
42 634 1
43 634 1
45 634 1
49 634 1
50 634 1
52 634 1
53 634 1
57 634 1
58 634 1
62 634 1
67 634 1
97 634 1
100 634 1
101 634 1
102 634 1
107 634 1
111 634 1
113 634 1
114 634 1
115 634 1
117 634 1
118 634 1
121 634 1
122 634 1
127 634 1
128 634 1
133 634 1
135 634 1
37 635 1
38 635 1
41 635 1
42 635 1
43 635 1
46 635 1
49 635 1
50 635 1
51 635 1
53 635 1
55 635 1
56 635 1
59 635 1
62 635 1
63 635 1
64 635 1
67 635 1
98 635 1
99 635 1
100 635 1
106 635 1
110 635 1
111 635 1
113 635 1
115 635 1
118 635 1
119 635 1
120 635 1
121 635 1
122 635 1
123 635 1
126 635 1
132 635 1
136 635 1
36 636 1
37 636 1
41 636 1
42 636 1
43 636 1
45 636 1
49 636 1
50 636 1
52 636 1
53 636 1
57 636 1
58 636 1
62 636 1
67 636 1
97 636 1
100 636 1
101 636 1
102 636 1
107 636 1
111 636 1
113 636 1
114 636 1
115 636 1
117 636 1
118 636 1
121 636 1
122 636 1
127 636 1
128 636 1
133 636 1
136 636 1
37 637 1
38 637 1
39 637 1
41 637 1
42 637 1
45 637 1
47 637 1
49 637 1
51 637 1
53 637 1
56 637 1
58 637 1
59 637 1
60 637 1
96 637 1
97 637 1
98 637 1
99 637 1
100 637 1
101 637 1
107 637 1
108 637 1
109 637 1
111 637 1
113 637 1
114 637 1
115 637 1
117 637 1
118 637 1
121 637 1
124 637 1
125 637 1
126 637 1
127 637 1
135 637 1
132 638 1
38 639 1
39 639 1
41 639 1
42 639 1
46 639 1
47 639 1
48 639 1
50 639 1
51 639 1
56 639 1
59 639 1
60 639 1
64 639 1
67 639 1
96 639 1
98 639 1
99 639 1
100 639 1
108 639 1
109 639 1
110 639 1
111 639 1
114 639 1
117 639 1
118 639 1
119 639 1
120 639 1
122 639 1
124 639 1
126 639 1
132 639 1
133 639 1
135 639 1
136 639 1
36 640 1
37 640 1
41 640 1
42 640 1
43 640 1
45 640 1
49 640 1
50 640 1
52 640 1
53 640 1
57 640 1
58 640 1
62 640 1
67 640 1
97 640 1
100 640 1
101 640 1
102 640 1
107 640 1
111 640 1
113 640 1
114 640 1
115 640 1
117 640 1
118 640 1
121 640 1
122 640 1
127 640 1
128 640 1
133 640 1
136 640 1
37 641 1
39 641 1
43 641 1
47 641 1
48 641 1
49 641 1
53 641 1
55 641 1
60 641 1
62 641 1
63 641 1
96 641 1
106 641 1
108 641 1
109 641 1
113 641 1
114 641 1
115 641 1
117 641 1
121 641 1
123 641 1
124 641 1
133 641 1
135 641 1
136 641 1
37 642 1
38 642 1
39 642 1
41 642 1
42 642 1
45 642 1
47 642 1
49 642 1
51 642 1
53 642 1
56 642 1
58 642 1
59 642 1
60 642 1
96 642 1
97 642 1
98 642 1
99 642 1
100 642 1
101 642 1
107 642 1
108 642 1
109 642 1
111 642 1
113 642 1
114 642 1
115 642 1
117 642 1
118 642 1
121 642 1
124 642 1
125 642 1
126 642 1
127 642 1
132 642 1
135 642 1
136 642 1
36 643 1
37 643 1
38 643 1
48 643 1
49 643 1
50 643 1
51 643 1
52 643 1
53 643 1
55 643 1
56 643 1
57 643 1
59 643 1
63 643 1
67 643 1
98 643 1
99 643 1
102 643 1
106 643 1
113 643 1
114 643 1
115 643 1
117 643 1
121 643 1
122 643 1
123 643 1
125 643 1
126 643 1
128 643 1
132 643 1
133 643 1
36 644 1
37 644 1
41 644 1
42 644 1
43 644 1
45 644 1
49 644 1
50 644 1
52 644 1
53 644 1
57 644 1
58 644 1
62 644 1
67 644 1
97 644 1
100 644 1
101 644 1
102 644 1
107 644 1
111 644 1
113 644 1
114 644 1
115 644 1
117 644 1
118 644 1
121 644 1
122 644 1
127 644 1
128 644 1
133 644 1
136 644 1
36 645 1
38 645 1
39 645 1
43 645 1
47 645 1
50 645 1
51 645 1
52 645 1
56 645 1
57 645 1
59 645 1
60 645 1
62 645 1
67 645 1
96 645 1
98 645 1
99 645 1
102 645 1
108 645 1
109 645 1
122 645 1
124 645 1
125 645 1
126 645 1
128 645 1
132 645 1
135 645 1
36 646 1
37 646 1
41 646 1
42 646 1
43 646 1
45 646 1
49 646 1
50 646 1
52 646 1
53 646 1
57 646 1
58 646 1
62 646 1
67 646 1
97 646 1
100 646 1
101 646 1
102 646 1
107 646 1
111 646 1
113 646 1
114 646 1
115 646 1
117 646 1
118 646 1
121 646 1
122 646 1
127 646 1
128 646 1
133 646 1
136 646 1
36 647 1
41 647 1
42 647 1
43 647 1
46 647 1
48 647 1
52 647 1
57 647 1
62 647 1
64 647 1
100 647 1
102 647 1
110 647 1
111 647 1
114 647 1
117 647 1
118 647 1
119 647 1
120 647 1
125 647 1
128 647 1
133 647 1
36 648 1
41 648 1
42 648 1
43 648 1
46 648 1
48 648 1
52 648 1
57 648 1
62 648 1
64 648 1
100 648 1
102 648 1
110 648 1
111 648 1
114 648 1
117 648 1
118 648 1
119 648 1
120 648 1
125 648 1
128 648 1
135 648 1
136 648 1
36 649 1
37 649 1
38 649 1
48 649 1
49 649 1
50 649 1
51 649 1
52 649 1
53 649 1
55 649 1
56 649 1
57 649 1
59 649 1
63 649 1
67 649 1
98 649 1
99 649 1
102 649 1
106 649 1
113 649 1
114 649 1
115 649 1
117 649 1
121 649 1
122 649 1
123 649 1
125 649 1
126 649 1
128 649 1
132 649 1
136 649 1
36 650 1
41 650 1
42 650 1
43 650 1
46 650 1
48 650 1
52 650 1
57 650 1
62 650 1
64 650 1
100 650 1
102 650 1
110 650 1
111 650 1
114 650 1
117 650 1
118 650 1
119 650 1
120 650 1
125 650 1
128 650 1
132 650 1
133 650 1
136 650 1
38 651 1
39 651 1
41 651 1
42 651 1
46 651 1
47 651 1
48 651 1
50 651 1
51 651 1
56 651 1
59 651 1
60 651 1
64 651 1
67 651 1
96 651 1
98 651 1
99 651 1
100 651 1
108 651 1
109 651 1
110 651 1
111 651 1
114 651 1
117 651 1
118 651 1
119 651 1
120 651 1
122 651 1
124 651 1
126 651 1
132 651 1
133 651 1
135 651 1
136 651 1
38 652 1
41 652 1
42 652 1
43 652 1
45 652 1
48 652 1
51 652 1
55 652 1
56 652 1
58 652 1
59 652 1
62 652 1
63 652 1
97 652 1
98 652 1
99 652 1
100 652 1
101 652 1
106 652 1
107 652 1
111 652 1
118 652 1
123 652 1
125 652 1
126 652 1
127 652 1
132 652 1
36 653 1
37 653 1
41 653 1
42 653 1
43 653 1
45 653 1
49 653 1
50 653 1
52 653 1
53 653 1
57 653 1
58 653 1
62 653 1
67 653 1
97 653 1
100 653 1
101 653 1
102 653 1
107 653 1
111 653 1
113 653 1
114 653 1
115 653 1
117 653 1
118 653 1
121 653 1
122 653 1
127 653 1
128 653 1
132 653 1
133 653 1
37 654 1
39 654 1
43 654 1
47 654 1
48 654 1
49 654 1
53 654 1
55 654 1
60 654 1
62 654 1
63 654 1
96 654 1
106 654 1
108 654 1
109 654 1
113 654 1
114 654 1
115 654 1
117 654 1
121 654 1
123 654 1
124 654 1
132 654 1
133 654 1
135 654 1
38 655 1
39 655 1
41 655 1
42 655 1
46 655 1
47 655 1
48 655 1
50 655 1
51 655 1
56 655 1
59 655 1
60 655 1
64 655 1
67 655 1
96 655 1
98 655 1
99 655 1
100 655 1
108 655 1
109 655 1
110 655 1
111 655 1
114 655 1
117 655 1
118 655 1
119 655 1
120 655 1
122 655 1
124 655 1
126 655 1
132 655 1
133 655 1
135 655 1
136 655 1
36 656 1
38 656 1
45 656 1
46 656 1
51 656 1
52 656 1
55 656 1
56 656 1
57 656 1
58 656 1
59 656 1
63 656 1
64 656 1
97 656 1
98 656 1
99 656 1
101 656 1
102 656 1
106 656 1
107 656 1
110 656 1
114 656 1
117 656 1
119 656 1
120 656 1
123 656 1
126 656 1
127 656 1
128 656 1
132 656 1
39 657 1
43 657 1
45 657 1
46 657 1
47 657 1
50 657 1
55 657 1
58 657 1
60 657 1
62 657 1
63 657 1
64 657 1
67 657 1
96 657 1
97 657 1
101 657 1
106 657 1
107 657 1
108 657 1
109 657 1
110 657 1
114 657 1
117 657 1
119 657 1
120 657 1
122 657 1
123 657 1
124 657 1
125 657 1
127 657 1
132 657 1
135 657 1
37 658 1
45 658 1
46 658 1
48 658 1
49 658 1
50 658 1
53 658 1
58 658 1
64 658 1
67 658 1
97 658 1
101 658 1
107 658 1
110 658 1
113 658 1
115 658 1
119 658 1
120 658 1
121 658 1
122 658 1
125 658 1
127 658 1
132 658 1
133 658 1
136 658 1
36 659 1
37 659 1
38 659 1
48 659 1
49 659 1
50 659 1
51 659 1
52 659 1
53 659 1
55 659 1
56 659 1
57 659 1
59 659 1
63 659 1
67 659 1
98 659 1
99 659 1
102 659 1
106 659 1
113 659 1
114 659 1
115 659 1
117 659 1
121 659 1
122 659 1
123 659 1
125 659 1
126 659 1
128 659 1
133 659 1
37 661 1
38 661 1
41 661 1
42 661 1
43 661 1
46 661 1
49 661 1
50 661 1
51 661 1
53 661 1
55 661 1
56 661 1
59 661 1
62 661 1
63 661 1
64 661 1
67 661 1
98 661 1
99 661 1
100 661 1
106 661 1
110 661 1
111 661 1
113 661 1
115 661 1
118 661 1
119 661 1
120 661 1
121 661 1
122 661 1
123 661 1
126 661 1
132 661 1
133 661 1
136 661 1
37 662 1
45 662 1
46 662 1
48 662 1
49 662 1
50 662 1
53 662 1
58 662 1
64 662 1
67 662 1
97 662 1
101 662 1
107 662 1
110 662 1
113 662 1
115 662 1
119 662 1
120 662 1
121 662 1
122 662 1
125 662 1
127 662 1
132 662 1
133 662 1
136 662 1
132 663 1
39 664 1
43 664 1
45 664 1
46 664 1
47 664 1
50 664 1
55 664 1
58 664 1
60 664 1
62 664 1
63 664 1
64 664 1
67 664 1
96 664 1
97 664 1
101 664 1
106 664 1
107 664 1
108 664 1
109 664 1
110 664 1
114 664 1
117 664 1
119 664 1
120 664 1
122 664 1
123 664 1
124 664 1
125 664 1
127 664 1
132 664 1
133 664 1
135 664 1
36 665 1
38 665 1
45 665 1
46 665 1
51 665 1
52 665 1
55 665 1
56 665 1
57 665 1
58 665 1
59 665 1
63 665 1
64 665 1
97 665 1
98 665 1
99 665 1
101 665 1
102 665 1
106 665 1
107 665 1
110 665 1
114 665 1
117 665 1
119 665 1
120 665 1
123 665 1
126 665 1
127 665 1
128 665 1
132 665 1
36 666 1
38 666 1
39 666 1
43 666 1
47 666 1
50 666 1
51 666 1
52 666 1
56 666 1
57 666 1
59 666 1
60 666 1
62 666 1
67 666 1
96 666 1
98 666 1
99 666 1
102 666 1
108 666 1
109 666 1
122 666 1
124 666 1
125 666 1
126 666 1
128 666 1
133 666 1
135 666 1
39 667 1
43 667 1
45 667 1
46 667 1
47 667 1
50 667 1
55 667 1
58 667 1
60 667 1
62 667 1
63 667 1
64 667 1
67 667 1
96 667 1
97 667 1
101 667 1
106 667 1
107 667 1
108 667 1
109 667 1
110 667 1
114 667 1
117 667 1
119 667 1
120 667 1
122 667 1
123 667 1
124 667 1
125 667 1
127 667 1
132 667 1
135 667 1
136 667 1
38 668 1
41 668 1
42 668 1
43 668 1
45 668 1
48 668 1
51 668 1
55 668 1
56 668 1
58 668 1
59 668 1
62 668 1
63 668 1
97 668 1
98 668 1
99 668 1
100 668 1
101 668 1
106 668 1
107 668 1
111 668 1
118 668 1
123 668 1
125 668 1
126 668 1
127 668 1
36 669 1
37 669 1
38 669 1
39 669 1
43 669 1
45 669 1
46 669 1
47 669 1
48 669 1
49 669 1
51 669 1
52 669 1
53 669 1
56 669 1
57 669 1
58 669 1
59 669 1
60 669 1
62 669 1
64 669 1
96 669 1
97 669 1
98 669 1
99 669 1
101 669 1
102 669 1
107 669 1
108 669 1
109 669 1
110 669 1
113 669 1
115 669 1
119 669 1
120 669 1
121 669 1
124 669 1
126 669 1
127 669 1
128 669 1
135 669 1
136 669 1
36 670 1
39 670 1
41 670 1
42 670 1
45 670 1
47 670 1
48 670 1
50 670 1
52 670 1
55 670 1
57 670 1
58 670 1
60 670 1
63 670 1
67 670 1
96 670 1
97 670 1
100 670 1
101 670 1
102 670 1
106 670 1
107 670 1
108 670 1
109 670 1
111 670 1
118 670 1
122 670 1
123 670 1
124 670 1
127 670 1
128 670 1
132 670 1
135 670 1
136 670 1
37 671 1
38 671 1
41 671 1
42 671 1
43 671 1
46 671 1
49 671 1
50 671 1
51 671 1
53 671 1
55 671 1
56 671 1
59 671 1
62 671 1
63 671 1
64 671 1
67 671 1
98 671 1
99 671 1
100 671 1
106 671 1
110 671 1
111 671 1
113 671 1
115 671 1
118 671 1
119 671 1
120 671 1
121 671 1
122 671 1
123 671 1
126 671 1
132 671 1
36 672 1
38 672 1
39 672 1
43 672 1
47 672 1
50 672 1
51 672 1
52 672 1
56 672 1
57 672 1
59 672 1
60 672 1
62 672 1
67 672 1
96 672 1
98 672 1
99 672 1
102 672 1
108 672 1
109 672 1
122 672 1
124 672 1
125 672 1
126 672 1
128 672 1
132 672 1
133 672 1
135 672 1
36 673 1
38 673 1
39 673 1
43 673 1
47 673 1
50 673 1
51 673 1
52 673 1
56 673 1
57 673 1
59 673 1
60 673 1
62 673 1
67 673 1
96 673 1
98 673 1
99 673 1
102 673 1
108 673 1
109 673 1
122 673 1
124 673 1
125 673 1
126 673 1
128 673 1
132 673 1
135 673 1
136 673 1
36 674 1
38 674 1
39 674 1
43 674 1
47 674 1
50 674 1
51 674 1
52 674 1
56 674 1
57 674 1
59 674 1
60 674 1
62 674 1
67 674 1
96 674 1
98 674 1
99 674 1
102 674 1
108 674 1
109 674 1
122 674 1
124 674 1
125 674 1
126 674 1
128 674 1
132 674 1
133 674 1
135 674 1
38 675 1
39 675 1
41 675 1
42 675 1
46 675 1
47 675 1
48 675 1
50 675 1
51 675 1
56 675 1
59 675 1
60 675 1
64 675 1
67 675 1
96 675 1
98 675 1
99 675 1
100 675 1
108 675 1
109 675 1
110 675 1
111 675 1
114 675 1
117 675 1
118 675 1
119 675 1
120 675 1
122 675 1
124 675 1
126 675 1
132 675 1
135 675 1
136 675 1
37 676 1
45 676 1
46 676 1
48 676 1
49 676 1
50 676 1
53 676 1
58 676 1
64 676 1
67 676 1
97 676 1
101 676 1
107 676 1
110 676 1
113 676 1
115 676 1
119 676 1
120 676 1
121 676 1
122 676 1
125 676 1
127 676 1
132 676 1
133 676 1
136 676 1
38 677 1
39 677 1
41 677 1
42 677 1
46 677 1
47 677 1
48 677 1
50 677 1
51 677 1
56 677 1
59 677 1
60 677 1
64 677 1
67 677 1
96 677 1
98 677 1
99 677 1
100 677 1
108 677 1
109 677 1
110 677 1
111 677 1
114 677 1
117 677 1
118 677 1
119 677 1
120 677 1
122 677 1
124 677 1
126 677 1
133 677 1
135 677 1
132 678 1
36 679 1
37 679 1
41 679 1
42 679 1
43 679 1
45 679 1
49 679 1
50 679 1
52 679 1
53 679 1
57 679 1
58 679 1
62 679 1
67 679 1
97 679 1
100 679 1
101 679 1
102 679 1
107 679 1
111 679 1
113 679 1
114 679 1
115 679 1
117 679 1
118 679 1
121 679 1
122 679 1
127 679 1
128 679 1
133 679 1
136 679 1
36 680 1
38 680 1
39 680 1
43 680 1
47 680 1
50 680 1
51 680 1
52 680 1
56 680 1
57 680 1
59 680 1
60 680 1
62 680 1
67 680 1
96 680 1
98 680 1
99 680 1
102 680 1
108 680 1
109 680 1
122 680 1
124 680 1
125 680 1
126 680 1
128 680 1
132 680 1
36 681 1
37 681 1
41 681 1
42 681 1
43 681 1
45 681 1
49 681 1
50 681 1
52 681 1
53 681 1
57 681 1
58 681 1
62 681 1
67 681 1
97 681 1
100 681 1
101 681 1
102 681 1
107 681 1
111 681 1
113 681 1
114 681 1
115 681 1
117 681 1
118 681 1
121 681 1
122 681 1
127 681 1
128 681 1
132 681 1
133 681 1
136 681 1
36 682 1
41 682 1
42 682 1
43 682 1
46 682 1
48 682 1
52 682 1
57 682 1
62 682 1
64 682 1
100 682 1
102 682 1
110 682 1
111 682 1
114 682 1
117 682 1
118 682 1
119 682 1
120 682 1
125 682 1
128 682 1
133 682 1
136 682 1
36 684 1
37 684 1
38 684 1
48 684 1
49 684 1
50 684 1
51 684 1
52 684 1
53 684 1
55 684 1
56 684 1
57 684 1
59 684 1
63 684 1
67 684 1
98 684 1
99 684 1
102 684 1
106 684 1
113 684 1
114 684 1
115 684 1
117 684 1
121 684 1
122 684 1
123 684 1
125 684 1
126 684 1
128 684 1
132 684 1
133 684 1
136 684 1
36 685 1
38 685 1
39 685 1
43 685 1
47 685 1
50 685 1
51 685 1
52 685 1
56 685 1
57 685 1
59 685 1
60 685 1
62 685 1
67 685 1
96 685 1
98 685 1
99 685 1
102 685 1
108 685 1
109 685 1
122 685 1
124 685 1
125 685 1
126 685 1
128 685 1
132 685 1
133 685 1
135 685 1
37 686 1
39 686 1
43 686 1
47 686 1
48 686 1
49 686 1
53 686 1
55 686 1
60 686 1
62 686 1
63 686 1
96 686 1
106 686 1
108 686 1
109 686 1
113 686 1
114 686 1
115 686 1
117 686 1
121 686 1
123 686 1
124 686 1
133 686 1
135 686 1
38 691 1
41 691 1
42 691 1
43 691 1
45 691 1
48 691 1
51 691 1
55 691 1
56 691 1
58 691 1
59 691 1
62 691 1
63 691 1
97 691 1
98 691 1
99 691 1
100 691 1
101 691 1
106 691 1
107 691 1
111 691 1
118 691 1
123 691 1
125 691 1
126 691 1
127 691 1
133 691 1
136 691 1
38 692 1
41 692 1
42 692 1
43 692 1
45 692 1
48 692 1
51 692 1
55 692 1
56 692 1
58 692 1
59 692 1
62 692 1
63 692 1
97 692 1
98 692 1
99 692 1
100 692 1
101 692 1
106 692 1
107 692 1
111 692 1
118 692 1
123 692 1
125 692 1
126 692 1
127 692 1
36 693 1
37 693 1
41 693 1
42 693 1
43 693 1
45 693 1
49 693 1
50 693 1
52 693 1
53 693 1
57 693 1
58 693 1
62 693 1
67 693 1
97 693 1
100 693 1
101 693 1
102 693 1
107 693 1
111 693 1
113 693 1
114 693 1
115 693 1
117 693 1
118 693 1
121 693 1
122 693 1
127 693 1
128 693 1
37 694 1
39 694 1
43 694 1
47 694 1
48 694 1
49 694 1
53 694 1
55 694 1
60 694 1
62 694 1
63 694 1
96 694 1
106 694 1
108 694 1
109 694 1
113 694 1
114 694 1
115 694 1
117 694 1
121 694 1
123 694 1
124 694 1
132 694 1
135 694 1
136 694 1
36 695 1
37 695 1
41 695 1
42 695 1
43 695 1
45 695 1
49 695 1
50 695 1
52 695 1
53 695 1
57 695 1
58 695 1
62 695 1
67 695 1
97 695 1
100 695 1
101 695 1
102 695 1
107 695 1
111 695 1
113 695 1
114 695 1
115 695 1
117 695 1
118 695 1
121 695 1
122 695 1
127 695 1
128 695 1
133 695 1
136 695 1
38 721 1
39 721 1
41 721 1
42 721 1
46 721 1
47 721 1
48 721 1
50 721 1
51 721 1
56 721 1
59 721 1
60 721 1
64 721 1
67 721 1
96 721 1
98 721 1
99 721 1
100 721 1
108 721 1
109 721 1
110 721 1
111 721 1
114 721 1
117 721 1
118 721 1
119 721 1
120 721 1
122 721 1
124 721 1
126 721 1
132 721 1
133 721 1
135 721 1
37 722 1
39 722 1
43 722 1
47 722 1
48 722 1
49 722 1
53 722 1
55 722 1
60 722 1
62 722 1
63 722 1
96 722 1
106 722 1
108 722 1
109 722 1
113 722 1
114 722 1
115 722 1
117 722 1
121 722 1
123 722 1
124 722 1
132 722 1
133 722 1
135 722 1
36 751 1
38 751 1
39 751 1
43 751 1
47 751 1
50 751 1
51 751 1
52 751 1
56 751 1
57 751 1
59 751 1
60 751 1
62 751 1
67 751 1
96 751 1
98 751 1
99 751 1
102 751 1
108 751 1
109 751 1
122 751 1
124 751 1
125 751 1
126 751 1
128 751 1
36 781 1
37 781 1
39 781 1
41 781 1
42 781 1
46 781 1
47 781 1
49 781 1
52 781 1
53 781 1
55 781 1
57 781 1
60 781 1
63 781 1
64 781 1
96 781 1
100 781 1
102 781 1
106 781 1
108 781 1
109 781 1
110 781 1
111 781 1
113 781 1
115 781 1
118 781 1
119 781 1
120 781 1
121 781 1
123 781 1
124 781 1
125 781 1
128 781 1
37 841 1
45 841 1
46 841 1
48 841 1
49 841 1
50 841 1
53 841 1
58 841 1
64 841 1
67 841 1
97 841 1
101 841 1
107 841 1
110 841 1
113 841 1
115 841 1
119 841 1
120 841 1
121 841 1
122 841 1
125 841 1
127 841 1
37 871 1
38 871 1
39 871 1
41 871 1
42 871 1
45 871 1
47 871 1
49 871 1
51 871 1
53 871 1
56 871 1
58 871 1
59 871 1
60 871 1
96 871 1
97 871 1
98 871 1
99 871 1
100 871 1
101 871 1
107 871 1
108 871 1
109 871 1
111 871 1
113 871 1
114 871 1
115 871 1
117 871 1
118 871 1
121 871 1
124 871 1
125 871 1
126 871 1
127 871 1
36 931 1
37 931 1
38 931 1
39 931 1
43 931 1
45 931 1
46 931 1
47 931 1
48 931 1
49 931 1
51 931 1
52 931 1
53 931 1
56 931 1
57 931 1
58 931 1
59 931 1
60 931 1
62 931 1
64 931 1
96 931 1
97 931 1
98 931 1
99 931 1
101 931 1
102 931 1
107 931 1
108 931 1
109 931 1
110 931 1
113 931 1
115 931 1
119 931 1
120 931 1
121 931 1
124 931 1
126 931 1
127 931 1
128 931 1
36 961 1
38 961 1
45 961 1
46 961 1
51 961 1
52 961 1
55 961 1
56 961 1
57 961 1
58 961 1
59 961 1
63 961 1
64 961 1
97 961 1
98 961 1
99 961 1
101 961 1
102 961 1
106 961 1
107 961 1
110 961 1
114 961 1
117 961 1
119 961 1
120 961 1
123 961 1
126 961 1
127 961 1
128 961 1
