%%MatrixMarket matrix coordinate integer general
80 544 3374
5 96 1
12 96 1
23 96 1
25 96 1
28 96 1
30 96 1
35 96 1
41 96 1
1 97 1
3 97 1
24 97 1
28 97 1
33 97 1
34 97 1
41 97 1
1 98 1
3 98 1
4 98 1
5 98 1
12 98 1
24 98 1
25 98 1
27 98 1
28 98 1
29 98 1
30 98 1
32 98 1
33 98 1
35 98 1
41 98 1
1 99 1
2 99 1
3 99 1
4 99 1
5 99 1
24 99 1
27 99 1
29 99 1
35 99 1
37 99 1
41 99 1
1 100 1
4 100 1
25 100 1
27 100 1
28 100 1
30 100 1
31 100 1
32 100 1
34 100 1
36 100 1
37 100 1
39 100 1
41 100 1
1 101 1
3 101 1
4 101 1
5 101 1
12 101 1
23 101 1
28 101 1
29 101 1
32 101 1
33 101 1
34 101 1
36 101 1
39 101 1
1 102 1
2 102 1
5 102 1
12 102 1
28 102 1
29 102 1
32 102 1
35 102 1
36 102 1
1 103 1
2 103 1
3 103 1
5 103 1
12 103 1
24 103 1
28 103 1
29 103 1
30 103 1
31 103 1
33 103 1
34 103 1
35 103 1
37 103 1
39 103 1
1 104 1
2 104 1
3 104 1
4 104 1
24 104 1
29 104 1
33 104 1
34 104 1
39 104 1
1 105 1
2 105 1
3 105 1
5 105 1
12 105 1
23 105 1
25 105 1
27 105 1
29 105 1
30 105 1
31 105 1
34 105 1
35 105 1
36 105 1
37 105 1
1 106 1
2 106 1
3 106 1
4 106 1
24 106 1
26 106 1
29 106 1
31 106 1
32 106 1
33 106 1
34 106 1
39 106 1
41 106 1
1 107 1
2 107 1
4 107 1
23 107 1
27 107 1
28 107 1
31 107 1
32 107 1
34 107 1
37 107 1
41 107 1
1 108 1
4 108 1
5 108 1
12 108 1
23 108 1
26 108 1
29 108 1
32 108 1
33 108 1
35 108 1
36 108 1
37 108 1
39 108 1
1 109 1
23 109 1
25 109 1
27 109 1
29 109 1
30 109 1
36 109 1
39 109 1
41 109 1
1 110 1
2 110 1
5 110 1
12 110 1
24 110 1
25 110 1
28 110 1
29 110 1
30 110 1
31 110 1
33 110 1
34 110 1
35 110 1
36 110 1
39 110 1
1 111 1
2 111 1
3 111 1
4 111 1
5 111 1
24 111 1
26 111 1
29 111 1
33 111 1
34 111 1
35 111 1
39 111 1
41 111 1
1 112 1
12 112 1
24 112 1
25 112 1
27 112 1
30 112 1
33 112 1
34 112 1
35 112 1
36 112 1
37 112 1
39 112 1
41 112 1
1 113 1
4 113 1
12 113 1
23 113 1
27 113 1
28 113 1
29 113 1
32 113 1
33 113 1
34 113 1
36 113 1
37 113 1
41 113 1
1 114 1
2 114 1
3 114 1
4 114 1
5 114 1
12 114 1
24 114 1
25 114 1
27 114 1
28 114 1
29 114 1
30 114 1
32 114 1
33 114 1
35 114 1
36 114 1
41 114 1
1 115 1
2 115 1
4 115 1
5 115 1
24 115 1
27 115 1
29 115 1
37 115 1
41 115 1
1 116 1
2 116 1
5 116 1
12 116 1
23 116 1
24 116 1
31 116 1
33 116 1
34 116 1
35 116 1
36 116 1
37 116 1
41 116 1
1 117 1
12 117 1
24 117 1
26 117 1
27 117 1
28 117 1
29 117 1
32 117 1
35 117 1
1 118 1
2 118 1
5 118 1
12 118 1
27 118 1
28 118 1
29 118 1
32 118 1
35 118 1
36 118 1
39 118 1
1 119 1
2 119 1
3 119 1
5 119 1
12 119 1
24 119 1
25 119 1
28 119 1
29 119 1
30 119 1
31 119 1
33 119 1
34 119 1
35 119 1
39 119 1
1 120 1
2 120 1
3 120 1
4 120 1
24 120 1
26 120 1
29 120 1
33 120 1
34 120 1
39 120 1
41 120 1
1 121 1
2 121 1
4 121 1
23 121 1
28 121 1
31 121 1
32 121 1
34 121 1
36 121 1
37 121 1
41 121 1
1 122 1
4 122 1
5 122 1
23 122 1
26 122 1
28 122 1
31 122 1
35 122 1
36 122 1
39 122 1
41 122 1
1 123 1
3 123 1
4 123 1
5 123 1
12 123 1
24 123 1
27 123 1
28 123 1
29 123 1
30 123 1
32 123 1
33 123 1
35 123 1
39 123 1
41 123 1
1 124 1
2 124 1
3 124 1
4 124 1
5 124 1
24 124 1
26 124 1
27 124 1
29 124 1
35 124 1
41 124 1
1 125 1
4 125 1
24 125 1
25 125 1
27 125 1
28 125 1
30 125 1
31 125 1
32 125 1
34 125 1
36 125 1
37 125 1
39 125 1
1 126 1
12 126 1
23 126 1
24 126 1
25 126 1
27 126 1
30 126 1
33 126 1
34 126 1
35 126 1
36 126 1
39 126 1
41 126 1
1 127 1
3 127 1
24 127 1
33 127 1
34 127 1
1 128 1
4 129 1
2 130 1
3 131 1
5 132 1
31 133 1
27 134 1
25 135 1
26 136 1
24 137 1
12 138 1
23 139 1
28 140 1
33 141 1
29 142 1
30 143 1
34 144 1
32 145 1
36 146 1
35 147 1
2 148 1
4 148 1
12 148 1
23 148 1
24 148 1
25 148 1
27 148 1
28 148 1
30 148 1
32 148 1
33 148 1
35 148 1
39 148 1
3 149 1
4 149 1
5 149 1
23 149 1
24 149 1
26 149 1
27 149 1
31 149 1
33 149 1
34 149 1
35 149 1
36 149 1
39 149 1
39 150 1
37 151 1
41 152 1
3 153 1
4 153 1
5 153 1
12 153 1
24 153 1
25 153 1
27 153 1
28 153 1
29 153 1
30 153 1
32 153 1
35 153 1
41 153 1
2 154 1
3 154 1
5 154 1
12 154 1
23 154 1
24 154 1
28 154 1
29 154 1
32 154 1
33 154 1
34 154 1
35 154 1
36 154 1
2 155 1
3 155 1
5 155 1
12 155 1
24 155 1
29 155 1
30 155 1
31 155 1
33 155 1
34 155 1
35 155 1
37 155 1
39 155 1
2 156 1
3 156 1
12 156 1
23 156 1
24 156 1
27 156 1
28 156 1
32 156 1
33 156 1
36 156 1
37 156 1
39 156 1
41 156 1
4 157 1
23 157 1
24 157 1
28 157 1
29 157 1
31 157 1
32 157 1
33 157 1
34 157 1
37 157 1
41 157 1
3 158 1
5 158 1
26 158 1
27 158 1
30 158 1
31 158 1
32 158 1
33 158 1
34 158 1
37 158 1
39 158 1
4 159 1
5 159 1
12 159 1
24 159 1
27 159 1
28 159 1
32 159 1
33 159 1
34 159 1
35 159 1
36 159 1
5 160 1
23 160 1
24 160 1
27 160 1
28 160 1
33 160 1
36 160 1
37 160 1
39 160 1
10 161 1
9 162 1
8 163 1
7 164 1
6 165 1
14 166 1
11 167 1
15 168 1
16 169 1
13 170 1
17 171 1
18 172 1
20 173 1
19 174 1
22 175 1
21 176 1
42 177 1
38 178 1
43 179 1
60 180 1
59 181 1
61 182 1
64 183 1
66 184 1
62 185 1
63 186 1
67 187 1
68 188 1
69 189 1
65 190 1
71 191 1
72 192 1
2 193 1
3 193 1
12 193 1
13 193 1
14 193 1
15 193 1
16 193 1
21 193 1
22 193 1
23 193 1
25 193 1
26 193 1
29 193 1
30 193 1
31 193 1
34 193 1
35 193 1
39 193 1
42 193 1
43 193 1
59 193 1
60 193 1
61 193 1
62 193 1
63 193 1
64 193 1
65 193 1
66 193 1
68 193 1
69 193 1
74 193 1
2 194 1
5 194 1
6 194 1
7 194 1
8 194 1
9 194 1
10 194 1
12 194 1
14 194 1
16 194 1
17 194 1
18 194 1
19 194 1
20 194 1
22 194 1
23 194 1
24 194 1
26 194 1
29 194 1
30 194 1
37 194 1
39 194 1
42 194 1
60 194 1
61 194 1
63 194 1
66 194 1
69 194 1
71 194 1
72 194 1
74 194 1
74 195 1
2 196 1
3 196 1
6 196 1
7 196 1
8 196 1
9 196 1
11 196 1
13 196 1
14 196 1
18 196 1
19 196 1
20 196 1
21 196 1
22 196 1
23 196 1
26 196 1
28 196 1
30 196 1
32 196 1
33 196 1
34 196 1
37 196 1
38 196 1
39 196 1
41 196 1
42 196 1
59 196 1
62 196 1
64 196 1
65 196 1
67 196 1
72 196 1
74 196 1
9 197 1
10 197 1
13 197 1
15 197 1
17 197 1
18 197 1
43 197 1
59 197 1
61 197 1
62 197 1
63 197 1
64 197 1
65 197 1
66 197 1
67 197 1
68 197 1
71 197 1
72 197 1
74 197 1
2 198 1
5 198 1
6 198 1
7 198 1
11 198 1
13 198 1
14 198 1
16 198 1
17 198 1
19 198 1
21 198 1
22 198 1
23 198 1
24 198 1
25 198 1
26 198 1
28 198 1
30 198 1
31 198 1
32 198 1
33 198 1
35 198 1
38 198 1
39 198 1
41 198 1
59 198 1
60 198 1
61 198 1
63 198 1
65 198 1
66 198 1
68 198 1
69 198 1
71 198 1
74 198 1
2 199 1
7 199 1
8 199 1
9 199 1
10 199 1
15 199 1
17 199 1
19 199 1
20 199 1
24 199 1
25 199 1
26 199 1
27 199 1
30 199 1
31 199 1
34 199 1
35 199 1
36 199 1
37 199 1
38 199 1
39 199 1
42 199 1
43 199 1
61 199 1
69 199 1
71 199 1
74 199 1
2 200 1
11 200 1
12 200 1
13 200 1
14 200 1
16 200 1
20 200 1
21 200 1
24 200 1
26 200 1
27 200 1
28 200 1
29 200 1
30 200 1
32 200 1
33 200 1
34 200 1
36 200 1
39 200 1
41 200 1
42 200 1
43 200 1
59 200 1
60 200 1
62 200 1
67 200 1
74 200 1
3 201 1
6 201 1
7 201 1
8 201 1
9 201 1
10 201 1
12 201 1
14 201 1
15 201 1
17 201 1
18 201 1
20 201 1
21 201 1
22 201 1
23 201 1
24 201 1
27 201 1
29 201 1
36 201 1
37 201 1
42 201 1
60 201 1
61 201 1
62 201 1
63 201 1
64 201 1
65 201 1
67 201 1
68 201 1
72 201 1
74 201 1
5 202 1
10 202 1
12 202 1
13 202 1
16 202 1
22 202 1
23 202 1
25 202 1
27 202 1
29 202 1
31 202 1
34 202 1
35 202 1
36 202 1
62 202 1
63 202 1
65 202 1
66 202 1
68 202 1
69 202 1
71 202 1
72 202 1
74 202 1
2 203 1
5 203 1
6 203 1
7 203 1
8 203 1
11 203 1
14 203 1
17 203 1
18 203 1
19 203 1
20 203 1
22 203 1
23 203 1
24 203 1
25 203 1
26 203 1
28 203 1
30 203 1
31 203 1
32 203 1
33 203 1
35 203 1
38 203 1
39 203 1
41 203 1
59 203 1
63 203 1
64 203 1
69 203 1
71 203 1
74 203 1
2 204 1
8 204 1
9 204 1
13 204 1
15 204 1
24 204 1
25 204 1
26 204 1
27 204 1
30 204 1
31 204 1
34 204 1
35 204 1
36 204 1
37 204 1
38 204 1
39 204 1
42 204 1
43 204 1
59 204 1
61 204 1
62 204 1
64 204 1
66 204 1
74 204 1
2 205 1
3 205 1
5 205 1
6 205 1
9 205 1
11 205 1
13 205 1
14 205 1
16 205 1
17 205 1
18 205 1
19 205 1
20 205 1
21 205 1
22 205 1
26 205 1
27 205 1
30 205 1
36 205 1
39 205 1
42 205 1
43 205 1
59 205 1
60 205 1
61 205 1
63 205 1
65 205 1
66 205 1
67 205 1
72 205 1
74 205 1
3 206 1
6 206 1
7 206 1
9 206 1
10 206 1
12 206 1
15 206 1
17 206 1
23 206 1
24 206 1
27 206 1
29 206 1
36 206 1
37 206 1
60 206 1
61 206 1
65 206 1
68 206 1
71 206 1
72 206 1
74 206 1
2 207 1
7 207 1
11 207 1
12 207 1
13 207 1
16 207 1
19 207 1
20 207 1
21 207 1
22 207 1
24 207 1
26 207 1
27 207 1
28 207 1
29 207 1
30 207 1
32 207 1
33 207 1
34 207 1
36 207 1
38 207 1
39 207 1
41 207 1
62 207 1
65 207 1
67 207 1
69 207 1
71 207 1
74 207 1
3 208 1
5 208 1
7 208 1
8 208 1
9 208 1
10 208 1
11 208 1
12 208 1
14 208 1
15 208 1
17 208 1
18 208 1
20 208 1
24 208 1
28 208 1
29 208 1
32 208 1
33 208 1
34 208 1
38 208 1
41 208 1
42 208 1
43 208 1
59 208 1
62 208 1
63 208 1
64 208 1
67 208 1
68 208 1
71 208 1
74 208 1
2 209 1
7 209 1
8 209 1
13 209 1
17 209 1
18 209 1
19 209 1
20 209 1
22 209 1
24 209 1
25 209 1
26 209 1
27 209 1
30 209 1
31 209 1
34 209 1
35 209 1
36 209 1
37 209 1
38 209 1
39 209 1
42 209 1
59 209 1
63 209 1
64 209 1
65 209 1
66 209 1
67 209 1
69 209 1
72 209 1
79 209 1
2 210 1
5 210 1
6 210 1
8 210 1
10 210 1
11 210 1
13 210 1
15 210 1
18 210 1
20 210 1
21 210 1
22 210 1
23 210 1
24 210 1
25 210 1
26 210 1
28 210 1
30 210 1
31 210 1
32 210 1
33 210 1
35 210 1
39 210 1
41 210 1
42 210 1
43 210 1
59 210 1
62 210 1
63 210 1
65 210 1
66 210 1
67 210 1
71 210 1
72 210 1
79 210 1
2 211 1
8 211 1
9 211 1
11 211 1
12 211 1
13 211 1
14 211 1
16 211 1
20 211 1
21 211 1
24 211 1
26 211 1
27 211 1
28 211 1
29 211 1
30 211 1
32 211 1
33 211 1
34 211 1
36 211 1
39 211 1
41 211 1
42 211 1
59 211 1
60 211 1
62 211 1
67 211 1
71 211 1
79 211 1
79 212 1
2 213 1
7 213 1
8 213 1
10 213 1
11 213 1
12 213 1
13 213 1
15 213 1
17 213 1
19 213 1
24 213 1
26 213 1
27 213 1
28 213 1
29 213 1
30 213 1
32 213 1
33 213 1
34 213 1
36 213 1
38 213 1
39 213 1
41 213 1
59 213 1
61 213 1
63 213 1
68 213 1
72 213 1
79 213 1
2 214 1
5 214 1
6 214 1
8 214 1
9 214 1
10 214 1
11 214 1
13 214 1
16 214 1
18 214 1
19 214 1
22 214 1
23 214 1
24 214 1
25 214 1
26 214 1
28 214 1
30 214 1
31 214 1
32 214 1
33 214 1
35 214 1
38 214 1
39 214 1
41 214 1
42 214 1
43 214 1
59 214 1
63 214 1
64 214 1
67 214 1
68 214 1
69 214 1
72 214 1
79 214 1
2 215 1
5 215 1
9 215 1
10 215 1
11 215 1
14 215 1
19 215 1
20 215 1
21 215 1
22 215 1
23 215 1
24 215 1
25 215 1
26 215 1
28 215 1
30 215 1
31 215 1
32 215 1
33 215 1
35 215 1
39 215 1
41 215 1
42 215 1
43 215 1
59 215 1
60 215 1
63 215 1
65 215 1
66 215 1
67 215 1
69 215 1
72 215 1
79 215 1
3 216 1
5 216 1
7 216 1
9 216 1
13 216 1
17 216 1
21 216 1
22 216 1
24 216 1
25 216 1
31 216 1
34 216 1
35 216 1
37 216 1
42 216 1
60 216 1
62 216 1
63 216 1
65 216 1
67 216 1
71 216 1
72 216 1
79 216 1
6 217 1
7 217 1
11 217 1
12 217 1
13 217 1
15 217 1
18 217 1
19 217 1
21 217 1
25 217 1
28 217 1
29 217 1
31 217 1
32 217 1
33 217 1
35 217 1
37 217 1
41 217 1
42 217 1
61 217 1
67 217 1
71 217 1
79 217 1
6 218 1
7 218 1
8 218 1
11 218 1
12 218 1
13 218 1
14 218 1
16 218 1
19 218 1
20 218 1
22 218 1
25 218 1
28 218 1
29 218 1
31 218 1
32 218 1
33 218 1
35 218 1
37 218 1
41 218 1
59 218 1
61 218 1
63 218 1
64 218 1
79 218 1
2 219 1
5 219 1
6 219 1
8 219 1
10 219 1
12 219 1
14 219 1
21 219 1
22 219 1
23 219 1
24 219 1
26 219 1
29 219 1
30 219 1
37 219 1
38 219 1
39 219 1
59 219 1
63 219 1
64 219 1
66 219 1
67 219 1
68 219 1
72 219 1
79 219 1
3 220 1
5 220 1
8 220 1
9 220 1
13 220 1
14 220 1
15 220 1
17 220 1
19 220 1
21 220 1
24 220 1
25 220 1
31 220 1
34 220 1
35 220 1
37 220 1
38 220 1
42 220 1
43 220 1
59 220 1
62 220 1
63 220 1
66 220 1
67 220 1
69 220 1
72 220 1
79 220 1
5 221 1
12 221 1
13 221 1
15 221 1
16 221 1
18 221 1
19 221 1
22 221 1
23 221 1
25 221 1
27 221 1
29 221 1
31 221 1
34 221 1
35 221 1
36 221 1
42 221 1
43 221 1
59 221 1
60 221 1
62 221 1
65 221 1
67 221 1
72 221 1
79 221 1
2 222 1
3 222 1
5 222 1
7 222 1
8 222 1
10 222 1
11 222 1
12 222 1
15 222 1
16 222 1
19 222 1
20 222 1
21 222 1
22 222 1
25 222 1
26 222 1
27 222 1
28 222 1
29 222 1
30 222 1
31 222 1
32 222 1
33 222 1
35 222 1
36 222 1
37 222 1
39 222 1
41 222 1
42 222 1
60 222 1
71 222 1
72 222 1
79 222 1
2 223 1
5 223 1
6 223 1
8 223 1
9 223 1
11 223 1
16 223 1
17 223 1
21 223 1
22 223 1
23 223 1
24 223 1
25 223 1
26 223 1
28 223 1
30 223 1
31 223 1
32 223 1
33 223 1
35 223 1
39 223 1
41 223 1
42 223 1
61 223 1
63 223 1
68 223 1
79 223 1
2 224 1
3 224 1
5 224 1
11 224 1
12 224 1
14 224 1
17 224 1
18 224 1
19 224 1
21 224 1
25 224 1
26 224 1
27 224 1
28 224 1
29 224 1
30 224 1
31 224 1
32 224 1
33 224 1
35 224 1
36 224 1
37 224 1
39 224 1
41 224 1
59 224 1
61 224 1
63 224 1
64 224 1
67 224 1
68 224 1
69 224 1
72 224 1
79 224 1
7 225 1
8 225 1
10 225 1
14 225 1
15 225 1
16 225 1
17 225 1
18 225 1
19 225 1
20 225 1
21 225 1
38 225 1
42 225 1
43 225 1
60 225 1
61 225 1
62 225 1
67 225 1
68 225 1
72 225 1
74 225 1
79 225 1
7 226 1
11 226 1
12 226 1
13 226 1
14 226 1
15 226 1
16 226 1
17 226 1
19 226 1
21 226 1
25 226 1
28 226 1
29 226 1
31 226 1
32 226 1
33 226 1
35 226 1
37 226 1
38 226 1
41 226 1
43 226 1
59 226 1
60 226 1
61 226 1
62 226 1
65 226 1
67 226 1
69 226 1
74 226 1
79 226 1
2 227 1
9 227 1
11 227 1
12 227 1
13 227 1
14 227 1
16 227 1
20 227 1
21 227 1
24 227 1
26 227 1
27 227 1
28 227 1
29 227 1
30 227 1
32 227 1
33 227 1
34 227 1
36 227 1
39 227 1
41 227 1
42 227 1
43 227 1
59 227 1
60 227 1
62 227 1
67 227 1
71 227 1
74 227 1
79 227 1
2 228 1
3 228 1
6 228 1
8 228 1
9 228 1
11 228 1
13 228 1
14 228 1
18 228 1
19 228 1
20 228 1
21 228 1
22 228 1
23 228 1
26 228 1
28 228 1
30 228 1
32 228 1
33 228 1
34 228 1
37 228 1
38 228 1
39 228 1
41 228 1
42 228 1
59 228 1
60 228 1
62 228 1
64 228 1
65 228 1
67 228 1
72 228 1
74 228 1
79 228 1
2 229 1
6 229 1
7 229 1
8 229 1
9 229 1
11 229 1
12 229 1
18 229 1
19 229 1
24 229 1
26 229 1
27 229 1
28 229 1
29 229 1
30 229 1
32 229 1
33 229 1
34 229 1
36 229 1
38 229 1
39 229 1
41 229 1
43 229 1
59 229 1
62 229 1
64 229 1
65 229 1
66 229 1
67 229 1
71 229 1
74 229 1
79 229 1
7 230 1
8 230 1
9 230 1
10 230 1
17 230 1
18 230 1
21 230 1
42 230 1
43 230 1
60 230 1
64 230 1
65 230 1
66 230 1
67 230 1
71 230 1
72 230 1
74 230 1
79 230 1
2 231 1
3 231 1
5 231 1
7 231 1
8 231 1
14 231 1
15 231 1
17 231 1
21 231 1
22 231 1
26 231 1
27 231 1
30 231 1
36 231 1
38 231 1
39 231 1
59 231 1
60 231 1
61 231 1
63 231 1
64 231 1
65 231 1
66 231 1
67 231 1
71 231 1
72 231 1
74 231 1
79 231 1
2 232 1
3 232 1
5 232 1
7 232 1
9 232 1
11 232 1
12 232 1
14 232 1
15 232 1
16 232 1
17 232 1
20 232 1
22 232 1
25 232 1
26 232 1
27 232 1
28 232 1
29 232 1
30 232 1
31 232 1
32 232 1
33 232 1
35 232 1
36 232 1
37 232 1
39 232 1
41 232 1
43 232 1
59 232 1
63 232 1
65 232 1
66 232 1
71 232 1
72 232 1
74 232 1
79 232 1
3 233 1
8 233 1
9 233 1
10 233 1
11 233 1
13 233 1
14 233 1
16 233 1
17 233 1
19 233 1
20 233 1
22 233 1
23 233 1
24 233 1
25 233 1
27 233 1
28 233 1
31 233 1
32 233 1
33 233 1
35 233 1
36 233 1
41 233 1
60 233 1
63 233 1
64 233 1
65 233 1
68 233 1
71 233 1
72 233 1
74 233 1
79 233 1
5 234 1
6 234 1
7 234 1
8 234 1
10 234 1
11 234 1
13 234 1
14 234 1
19 234 1
20 234 1
23 234 1
27 234 1
28 234 1
32 234 1
33 234 1
34 234 1
36 234 1
37 234 1
41 234 1
59 234 1
61 234 1
62 234 1
63 234 1
64 234 1
65 234 1
66 234 1
68 234 1
69 234 1
71 234 1
72 234 1
74 234 1
79 234 1
7 235 1
10 235 1
11 235 1
12 235 1
18 235 1
19 235 1
20 235 1
21 235 1
25 235 1
28 235 1
29 235 1
31 235 1
32 235 1
33 235 1
35 235 1
37 235 1
41 235 1
66 235 1
68 235 1
69 235 1
71 235 1
72 235 1
74 235 1
79 235 1
2 236 1
3 236 1
5 236 1
14 236 1
17 236 1
18 236 1
19 236 1
21 236 1
26 236 1
27 236 1
30 236 1
36 236 1
39 236 1
61 236 1
63 236 1
64 236 1
67 236 1
68 236 1
69 236 1
72 236 1
74 236 1
79 236 1
3 237 1
6 237 1
9 237 1
11 237 1
14 237 1
15 237 1
17 237 1
21 237 1
23 237 1
24 237 1
25 237 1
27 237 1
28 237 1
31 237 1
32 237 1
33 237 1
35 237 1
36 237 1
41 237 1
61 237 1
62 237 1
63 237 1
66 237 1
69 237 1
74 237 1
79 237 1
2 238 1
5 238 1
6 238 1
8 238 1
9 238 1
11 238 1
16 238 1
17 238 1
20 238 1
21 238 1
22 238 1
23 238 1
24 238 1
25 238 1
26 238 1
28 238 1
30 238 1
31 238 1
32 238 1
33 238 1
35 238 1
39 238 1
41 238 1
42 238 1
61 238 1
68 238 1
74 238 1
79 238 1
5 239 1
6 239 1
7 239 1
8 239 1
9 239 1
12 239 1
13 239 1
17 239 1
19 239 1
20 239 1
22 239 1
23 239 1
25 239 1
27 239 1
29 239 1
31 239 1
34 239 1
35 239 1
36 239 1
38 239 1
42 239 1
61 239 1
62 239 1
63 239 1
65 239 1
67 239 1
68 239 1
69 239 1
74 239 1
79 239 1
2 240 1
7 240 1
8 240 1
9 240 1
10 240 1
15 240 1
19 240 1
20 240 1
24 240 1
25 240 1
26 240 1
27 240 1
30 240 1
31 240 1
34 240 1
35 240 1
36 240 1
37 240 1
38 240 1
39 240 1
42 240 1
43 240 1
61 240 1
62 240 1
69 240 1
71 240 1
74 240 1
79 240 1
48 241 1
44 242 1
45 243 1
46 244 1
47 245 1
40 246 1
50 247 1
49 248 1
52 249 1
51 250 1
53 251 1
55 252 1
57 253 1
56 254 1
54 255 1
58 256 1
77 257 1
70 258 1
3 259 1
12 259 1
23 259 1
24 259 1
27 259 1
29 259 1
36 259 1
37 259 1
47 259 1
48 259 1
49 259 1
54 259 1
56 259 1
57 259 1
77 259 1
44 260 1
47 260 1
50 260 1
52 260 1
56 260 1
57 260 1
77 260 1
5 261 1
23 261 1
27 261 1
28 261 1
32 261 1
33 261 1
34 261 1
36 261 1
37 261 1
41 261 1
45 261 1
47 261 1
49 261 1
50 261 1
51 261 1
56 261 1
57 261 1
58 261 1
77 261 1
3 262 1
5 262 1
12 262 1
24 262 1
28 262 1
29 262 1
32 262 1
33 262 1
34 262 1
41 262 1
46 262 1
47 262 1
48 262 1
49 262 1
50 262 1
52 262 1
53 262 1
56 262 1
57 262 1
58 262 1
77 262 1
2 263 1
3 263 1
5 263 1
26 263 1
27 263 1
30 263 1
36 263 1
39 263 1
44 263 1
48 263 1
49 263 1
50 263 1
51 263 1
52 263 1
55 263 1
56 263 1
57 263 1
58 263 1
77 263 1
2 264 1
3 264 1
12 264 1
23 264 1
25 264 1
26 264 1
29 264 1
30 264 1
31 264 1
34 264 1
35 264 1
39 264 1
44 264 1
45 264 1
48 264 1
49 264 1
51 264 1
52 264 1
53 264 1
54 264 1
56 264 1
57 264 1
70 264 1
3 265 1
5 265 1
24 265 1
25 265 1
31 265 1
34 265 1
35 265 1
37 265 1
40 265 1
44 265 1
45 265 1
46 265 1
48 265 1
49 265 1
50 265 1
51 265 1
52 265 1
53 265 1
54 265 1
55 265 1
70 265 1
2 266 1
3 266 1
23 266 1
26 266 1
28 266 1
30 266 1
32 266 1
33 266 1
34 266 1
37 266 1
39 266 1
40 266 1
41 266 1
44 266 1
45 266 1
46 266 1
47 266 1
48 266 1
51 266 1
52 266 1
53 266 1
55 266 1
56 266 1
57 266 1
70 266 1
2 267 1
3 267 1
12 267 1
23 267 1
25 267 1
26 267 1
29 267 1
30 267 1
31 267 1
34 267 1
35 267 1
39 267 1
44 267 1
45 267 1
46 267 1
47 267 1
48 267 1
49 267 1
51 267 1
53 267 1
54 267 1
55 267 1
57 267 1
58 267 1
70 267 1
2 268 1
5 268 1
23 268 1
24 268 1
25 268 1
26 268 1
28 268 1
30 268 1
31 268 1
32 268 1
33 268 1
35 268 1
39 268 1
41 268 1
44 268 1
45 268 1
46 268 1
47 268 1
49 268 1
50 268 1
52 268 1
53 268 1
55 268 1
57 268 1
70 268 1
3 269 1
23 269 1
24 269 1
25 269 1
27 269 1
28 269 1
31 269 1
32 269 1
33 269 1
35 269 1
36 269 1
40 269 1
41 269 1
45 269 1
46 269 1
48 269 1
51 269 1
52 269 1
54 269 1
55 269 1
77 269 1
40 270 1
44 270 1
46 270 1
51 270 1
53 270 1
54 270 1
77 270 1
12 271 1
25 271 1
28 271 1
29 271 1
31 271 1
32 271 1
33 271 1
35 271 1
37 271 1
41 271 1
45 271 1
47 271 1
50 271 1
53 271 1
55 271 1
58 271 1
70 271 1
40 272 1
46 272 1
47 272 1
54 272 1
55 272 1
56 272 1
77 272 1
73 273 1
5 274 1
12 274 1
23 274 1
25 274 1
27 274 1
29 274 1
31 274 1
34 274 1
35 274 1
36 274 1
40 274 1
44 274 1
45 274 1
46 274 1
50 274 1
51 274 1
52 274 1
53 274 1
56 274 1
57 274 1
70 274 1
73 274 1
77 274 1
2 275 1
3 275 1
5 275 1
12 275 1
25 275 1
26 275 1
27 275 1
28 275 1
29 275 1
30 275 1
31 275 1
32 275 1
33 275 1
35 275 1
36 275 1
37 275 1
39 275 1
40 275 1
41 275 1
44 275 1
48 275 1
52 275 1
55 275 1
56 275 1
73 275 1
40 276 1
46 276 1
52 276 1
53 276 1
54 276 1
56 276 1
70 276 1
73 276 1
77 276 1
2 277 1
3 277 1
12 277 1
23 277 1
25 277 1
26 277 1
29 277 1
30 277 1
31 277 1
34 277 1
35 277 1
39 277 1
40 277 1
44 277 1
45 277 1
46 277 1
48 277 1
49 277 1
52 277 1
53 277 1
55 277 1
58 277 1
73 277 1
3 278 1
12 278 1
23 278 1
24 278 1
27 278 1
29 278 1
36 278 1
37 278 1
40 278 1
47 278 1
48 278 1
53 278 1
55 278 1
56 278 1
70 278 1
73 278 1
77 278 1
3 279 1
5 279 1
24 279 1
25 279 1
31 279 1
34 279 1
35 279 1
37 279 1
45 279 1
46 279 1
47 279 1
48 279 1
49 279 1
51 279 1
52 279 1
53 279 1
55 279 1
57 279 1
73 279 1
12 280 1
25 280 1
28 280 1
29 280 1
31 280 1
32 280 1
33 280 1
35 280 1
37 280 1
40 280 1
41 280 1
45 280 1
54 280 1
55 280 1
57 280 1
58 280 1
73 280 1
2 281 1
3 281 1
5 281 1
12 281 1
25 281 1
26 281 1
27 281 1
28 281 1
29 281 1
30 281 1
31 281 1
32 281 1
33 281 1
35 281 1
36 281 1
37 281 1
39 281 1
41 281 1
44 281 1
45 281 1
47 281 1
48 281 1
50 281 1
51 281 1
52 281 1
53 281 1
54 281 1
57 281 1
73 281 1
5 282 1
23 282 1
27 282 1
28 282 1
32 282 1
33 282 1
34 282 1
36 282 1
37 282 1
41 282 1
49 282 1
50 282 1
52 282 1
55 282 1
57 282 1
58 282 1
70 282 1
73 282 1
77 282 1
2 283 1
24 283 1
25 283 1
26 283 1
27 283 1
30 283 1
31 283 1
34 283 1
35 283 1
36 283 1
37 283 1
39 283 1
44 283 1
45 283 1
46 283 1
53 283 1
56 283 1
58 283 1
70 283 1
73 283 1
77 283 1
2 284 1
12 284 1
24 284 1
26 284 1
27 284 1
28 284 1
29 284 1
30 284 1
32 284 1
33 284 1
34 284 1
36 284 1
39 284 1
41 284 1
44 284 1
47 284 1
49 284 1
51 284 1
52 284 1
53 284 1
54 284 1
55 284 1
57 284 1
58 284 1
70 284 1
73 284 1
77 284 1
2 285 1
12 285 1
24 285 1
26 285 1
27 285 1
28 285 1
29 285 1
30 285 1
32 285 1
33 285 1
34 285 1
36 285 1
39 285 1
40 285 1
41 285 1
44 285 1
46 285 1
49 285 1
55 285 1
56 285 1
70 285 1
73 285 1
77 285 1
3 286 1
12 286 1
23 286 1
24 286 1
27 286 1
29 286 1
36 286 1
37 286 1
40 286 1
44 286 1
46 286 1
48 286 1
49 286 1
51 286 1
53 286 1
57 286 1
73 286 1
5 287 1
23 287 1
27 287 1
28 287 1
32 287 1
33 287 1
34 287 1
36 287 1
37 287 1
41 287 1
46 287 1
50 287 1
51 287 1
54 287 1
55 287 1
58 287 1
73 287 1
2 288 1
3 288 1
12 288 1
23 288 1
25 288 1
26 288 1
29 288 1
30 288 1
31 288 1
34 288 1
35 288 1
39 288 1
44 288 1
45 288 1
46 288 1
48 288 1
49 288 1
51 288 1
52 288 1
54 288 1
56 288 1
57 288 1
73 288 1
3 289 1
5 289 1
12 289 1
24 289 1
28 289 1
29 289 1
32 289 1
33 289 1
34 289 1
40 289 1
41 289 1
47 289 1
48 289 1
50 289 1
54 289 1
57 289 1
58 289 1
70 289 1
73 289 1
5 290 1
12 290 1
23 290 1
25 290 1
27 290 1
29 290 1
31 290 1
34 290 1
35 290 1
36 290 1
40 290 1
45 290 1
46 290 1
50 290 1
51 290 1
52 290 1
53 290 1
56 290 1
57 290 1
73 290 1
77 290 1
3 291 1
5 291 1
24 291 1
25 291 1
31 291 1
34 291 1
35 291 1
37 291 1
40 291 1
44 291 1
45 291 1
47 291 1
49 291 1
52 291 1
54 291 1
55 291 1
57 291 1
73 291 1
77 291 1
40 292 1
44 292 1
47 292 1
50 292 1
53 292 1
54 292 1
57 292 1
70 292 1
73 292 1
2 293 1
3 293 1
5 293 1
12 293 1
25 293 1
26 293 1
27 293 1
28 293 1
29 293 1
30 293 1
31 293 1
32 293 1
33 293 1
35 293 1
36 293 1
37 293 1
39 293 1
40 293 1
41 293 1
44 293 1
46 293 1
48 293 1
50 293 1
51 293 1
52 293 1
53 293 1
55 293 1
56 293 1
57 293 1
73 293 1
77 293 1
5 294 1
23 294 1
27 294 1
28 294 1
32 294 1
33 294 1
34 294 1
36 294 1
37 294 1
41 294 1
46 294 1
49 294 1
50 294 1
52 294 1
55 294 1
57 294 1
58 294 1
70 294 1
73 294 1
2 295 1
24 295 1
25 295 1
26 295 1
27 295 1
30 295 1
31 295 1
34 295 1
35 295 1
36 295 1
37 295 1
39 295 1
44 295 1
45 295 1
46 295 1
47 295 1
53 295 1
56 295 1
58 295 1
73 295 1
77 295 1
2 296 1
3 296 1
23 296 1
26 296 1
28 296 1
30 296 1
32 296 1
33 296 1
34 296 1
37 296 1
39 296 1
40 296 1
41 296 1
44 296 1
48 296 1
51 296 1
52 296 1
53 296 1
55 296 1
56 296 1
58 296 1
70 296 1
73 296 1
2 297 1
12 297 1
24 297 1
26 297 1
27 297 1
28 297 1
29 297 1
30 297 1
32 297 1
33 297 1
34 297 1
36 297 1
39 297 1
40 297 1
41 297 1
46 297 1
47 297 1
49 297 1
52 297 1
55 297 1
57 297 1
70 297 1
73 297 1
3 298 1
5 298 1
12 298 1
24 298 1
28 298 1
29 298 1
32 298 1
33 298 1
34 298 1
40 298 1
41 298 1
44 298 1
45 298 1
46 298 1
47 298 1
48 298 1
49 298 1
50 298 1
53 298 1
56 298 1
58 298 1
73 298 1
77 298 1
3 299 1
12 299 1
23 299 1
24 299 1
27 299 1
29 299 1
36 299 1
37 299 1
47 299 1
48 299 1
49 299 1
51 299 1
53 299 1
54 299 1
55 299 1
56 299 1
57 299 1
73 299 1
77 299 1
5 300 1
12 300 1
23 300 1
25 300 1
27 300 1
29 300 1
31 300 1
34 300 1
35 300 1
36 300 1
45 300 1
46 300 1
50 300 1
51 300 1
54 300 1
55 300 1
58 300 1
73 300 1
77 300 1
2 301 1
3 301 1
12 301 1
23 301 1
25 301 1
26 301 1
29 301 1
30 301 1
31 301 1
34 301 1
35 301 1
39 301 1
44 301 1
45 301 1
48 301 1
49 301 1
51 301 1
52 301 1
54 301 1
56 301 1
57 301 1
70 301 1
73 301 1
3 302 1
12 302 1
23 302 1
24 302 1
27 302 1
29 302 1
36 302 1
37 302 1
48 302 1
49 302 1
54 302 1
56 302 1
57 302 1
73 302 1
77 302 1
5 303 1
12 303 1
23 303 1
25 303 1
27 303 1
29 303 1
31 303 1
34 303 1
35 303 1
36 303 1
45 303 1
46 303 1
47 303 1
51 303 1
53 303 1
70 303 1
73 303 1
2 304 1
3 304 1
12 304 1
23 304 1
25 304 1
26 304 1
29 304 1
30 304 1
31 304 1
34 304 1
35 304 1
39 304 1
40 304 1
44 304 1
45 304 1
47 304 1
48 304 1
49 304 1
51 304 1
52 304 1
55 304 1
57 304 1
58 304 1
73 304 1
77 304 1
5 305 1
23 305 1
27 305 1
28 305 1
32 305 1
33 305 1
34 305 1
36 305 1
37 305 1
40 305 1
41 305 1
47 305 1
50 305 1
54 305 1
57 305 1
58 305 1
70 305 1
77 305 1
75 321 1
78 322 1
76 323 1
12 324 1
25 324 1
28 324 1
29 324 1
31 324 1
32 324 1
33 324 1
35 324 1
37 324 1
41 324 1
80 324 1
80 325 1
2 326 1
3 326 1
12 326 1
23 326 1
25 326 1
26 326 1
29 326 1
30 326 1
31 326 1
34 326 1
35 326 1
39 326 1
75 326 1
76 326 1
80 326 1
3 327 1
5 327 1
24 327 1
25 327 1
31 327 1
34 327 1
35 327 1
37 327 1
75 327 1
78 327 1
80 327 1
3 328 1
12 328 1
23 328 1
24 328 1
27 328 1
29 328 1
36 328 1
37 328 1
75 328 1
76 328 1
78 328 1
75 329 1
76 329 1
78 329 1
2 330 1
12 330 1
24 330 1
26 330 1
27 330 1
28 330 1
29 330 1
30 330 1
32 330 1
33 330 1
34 330 1
36 330 1
39 330 1
41 330 1
75 330 1
76 330 1
80 330 1
2 331 1
5 331 1
12 331 1
23 331 1
24 331 1
26 331 1
29 331 1
30 331 1
37 331 1
39 331 1
75 331 1
78 331 1
80 331 1
76 332 1
78 332 1
80 332 1
2 333 1
3 333 1
5 333 1
26 333 1
27 333 1
30 333 1
36 333 1
39 333 1
75 333 1
2 334 1
3 334 1
23 334 1
26 334 1
28 334 1
30 334 1
32 334 1
33 334 1
34 334 1
37 334 1
39 334 1
41 334 1
75 334 1
76 334 1
80 334 1
2 335 1
3 335 1
5 335 1
26 335 1
27 335 1
30 335 1
36 335 1
39 335 1
76 335 1
3 336 1
23 336 1
24 336 1
25 336 1
27 336 1
28 336 1
31 336 1
32 336 1
33 336 1
35 336 1
36 336 1
41 336 1
76 336 1
78 336 1
80 336 1
76 337 1
12 338 1
25 338 1
28 338 1
29 338 1
31 338 1
32 338 1
33 338 1
35 338 1
37 338 1
41 338 1
80 338 1
78 339 1
3 340 1
5 340 1
12 340 1
24 340 1
28 340 1
29 340 1
32 340 1
33 340 1
34 340 1
41 340 1
76 340 1
78 340 1
80 340 1
75 341 1
78 341 1
80 341 1
75 342 1
76 342 1
78 342 1
2 343 1
12 343 1
24 343 1
26 343 1
27 343 1
28 343 1
29 343 1
30 343 1
32 343 1
33 343 1
34 343 1
36 343 1
39 343 1
41 343 1
75 343 1
76 343 1
80 343 1
2 344 1
5 344 1
12 344 1
23 344 1
24 344 1
26 344 1
29 344 1
30 344 1
37 344 1
39 344 1
75 344 1
3 345 1
23 345 1
24 345 1
25 345 1
27 345 1
28 345 1
31 345 1
32 345 1
33 345 1
35 345 1
36 345 1
41 345 1
75 345 1
76 345 1
80 345 1
2 346 1
24 346 1
25 346 1
26 346 1
27 346 1
30 346 1
31 346 1
34 346 1
35 346 1
36 346 1
37 346 1
39 346 1
75 346 1
2 347 1
5 347 1
23 347 1
24 347 1
25 347 1
26 347 1
28 347 1
30 347 1
31 347 1
32 347 1
33 347 1
35 347 1
39 347 1
41 347 1
75 347 1
78 347 1
80 347 1
2 348 1
3 348 1
12 348 1
23 348 1
25 348 1
26 348 1
29 348 1
30 348 1
31 348 1
34 348 1
35 348 1
39 348 1
75 348 1
2 349 1
3 349 1
5 349 1
12 349 1
25 349 1
26 349 1
27 349 1
28 349 1
29 349 1
30 349 1
31 349 1
32 349 1
33 349 1
35 349 1
36 349 1
37 349 1
39 349 1
41 349 1
76 349 1
2 350 1
12 350 1
24 350 1
26 350 1
27 350 1
28 350 1
29 350 1
30 350 1
32 350 1
33 350 1
34 350 1
36 350 1
39 350 1
41 350 1
75 350 1
2 351 1
3 351 1
5 351 1
26 351 1
27 351 1
30 351 1
36 351 1
39 351 1
76 351 1
3 352 1
23 352 1
24 352 1
25 352 1
27 352 1
28 352 1
31 352 1
32 352 1
33 352 1
35 352 1
36 352 1
41 352 1
76 352 1
78 352 1
80 352 1
78 353 1
80 353 1
3 354 1
23 354 1
24 354 1
25 354 1
27 354 1
28 354 1
31 354 1
32 354 1
33 354 1
35 354 1
36 354 1
41 354 1
75 354 1
78 354 1
3 355 1
5 355 1
24 355 1
25 355 1
31 355 1
34 355 1
35 355 1
37 355 1
3 356 1
5 356 1
24 356 1
25 356 1
31 356 1
34 356 1
35 356 1
37 356 1
76 356 1
78 356 1
75 357 1
78 357 1
3 358 1
23 358 1
24 358 1
25 358 1
27 358 1
28 358 1
31 358 1
32 358 1
33 358 1
35 358 1
36 358 1
41 358 1
78 358 1
80 358 1
2 359 1
3 359 1
5 359 1
12 359 1
25 359 1
26 359 1
27 359 1
28 359 1
29 359 1
30 359 1
31 359 1
32 359 1
33 359 1
35 359 1
36 359 1
37 359 1
39 359 1
41 359 1
76 359 1
78 359 1
2 360 1
3 360 1
5 360 1
26 360 1
27 360 1
30 360 1
36 360 1
39 360 1
76 360 1
78 360 1
3 361 1
23 361 1
24 361 1
25 361 1
27 361 1
28 361 1
31 361 1
32 361 1
33 361 1
35 361 1
36 361 1
41 361 1
78 361 1
80 361 1
12 362 1
25 362 1
28 362 1
29 362 1
31 362 1
32 362 1
33 362 1
35 362 1
37 362 1
41 362 1
76 362 1
80 362 1
12 363 1
25 363 1
28 363 1
29 363 1
31 363 1
32 363 1
33 363 1
35 363 1
37 363 1
41 363 1
2 364 1
3 364 1
12 364 1
23 364 1
25 364 1
26 364 1
29 364 1
30 364 1
31 364 1
34 364 1
35 364 1
39 364 1
75 364 1
76 364 1
78 364 1
80 364 1
12 365 1
25 365 1
28 365 1
29 365 1
31 365 1
32 365 1
33 365 1
35 365 1
37 365 1
41 365 1
75 365 1
76 365 1
3 366 1
12 366 1
23 366 1
24 366 1
27 366 1
29 366 1
36 366 1
37 366 1
76 366 1
80 366 1
5 369 1
12 369 1
23 369 1
25 369 1
27 369 1
29 369 1
31 369 1
34 369 1
35 369 1
36 369 1
76 369 1
78 369 1
2 370 1
12 370 1
24 370 1
26 370 1
27 370 1
28 370 1
29 370 1
30 370 1
32 370 1
33 370 1
34 370 1
36 370 1
39 370 1
41 370 1
75 370 1
80 370 1
3 371 1
5 371 1
24 371 1
25 371 1
31 371 1
34 371 1
35 371 1
37 371 1
76 371 1
78 371 1
3 385 1
5 385 1
24 385 1
25 385 1
31 385 1
34 385 1
35 385 1
37 385 1
75 385 1
80 385 1
3 401 1
12 401 1
23 401 1
24 401 1
27 401 1
29 401 1
36 401 1
37 401 1
2 417 1
3 417 1
5 417 1
12 417 1
25 417 1
26 417 1
27 417 1
28 417 1
29 417 1
30 417 1
31 417 1
32 417 1
33 417 1
35 417 1
36 417 1
37 417 1
39 417 1
41 417 1
2 449 1
12 449 1
24 449 1
26 449 1
27 449 1
28 449 1
29 449 1
30 449 1
32 449 1
33 449 1
34 449 1
36 449 1
39 449 1
41 449 1
2 465 1
3 465 1
5 465 1
26 465 1
27 465 1
30 465 1
36 465 1
39 465 1
2 497 1
3 497 1
23 497 1
26 497 1
28 497 1
30 497 1
32 497 1
33 497 1
34 497 1
37 497 1
39 497 1
41 497 1
12 513 1
25 513 1
28 513 1
29 513 1
31 513 1
32 513 1
33 513 1
35 513 1
37 513 1
41 513 1
