%%MatrixMarket matrix coordinate integer general
450 1020 3600
1 1 1
31 1 1
61 1 1
2 2 1
32 2 1
62 2 1
3 3 1
33 3 1
63 3 1
4 4 1
34 4 1
64 4 1
5 5 1
35 5 1
65 5 1
6 6 1
36 6 1
66 6 1
7 7 1
37 7 1
67 7 1
8 8 1
38 8 1
68 8 1
9 9 1
39 9 1
69 9 1
10 10 1
40 10 1
70 10 1
11 11 1
41 11 1
71 11 1
12 12 1
42 12 1
72 12 1
13 13 1
43 13 1
73 13 1
14 14 1
44 14 1
74 14 1
15 15 1
45 15 1
75 15 1
16 16 1
46 16 1
76 16 1
17 17 1
47 17 1
77 17 1
18 18 1
48 18 1
78 18 1
19 19 1
49 19 1
79 19 1
20 20 1
50 20 1
80 20 1
21 21 1
51 21 1
81 21 1
22 22 1
52 22 1
82 22 1
23 23 1
53 23 1
83 23 1
24 24 1
54 24 1
84 24 1
25 25 1
55 25 1
85 25 1
26 26 1
56 26 1
86 26 1
27 27 1
57 27 1
87 27 1
28 28 1
58 28 1
88 28 1
29 29 1
59 29 1
89 29 1
30 30 1
60 30 1
90 30 1
1 31 1
33 31 1
77 31 1
2 32 1
34 32 1
78 32 1
3 33 1
35 33 1
79 33 1
4 34 1
36 34 1
80 34 1
5 35 1
37 35 1
81 35 1
6 36 1
38 36 1
82 36 1
7 37 1
39 37 1
83 37 1
8 38 1
40 38 1
84 38 1
9 39 1
41 39 1
85 39 1
10 40 1
42 40 1
86 40 1
11 41 1
43 41 1
87 41 1
12 42 1
44 42 1
88 42 1
13 43 1
45 43 1
89 43 1
14 44 1
46 44 1
90 44 1
15 45 1
47 45 1
61 45 1
16 46 1
48 46 1
62 46 1
17 47 1
49 47 1
63 47 1
18 48 1
50 48 1
64 48 1
19 49 1
51 49 1
65 49 1
20 50 1
52 50 1
66 50 1
21 51 1
53 51 1
67 51 1
22 52 1
54 52 1
68 52 1
23 53 1
55 53 1
69 53 1
24 54 1
56 54 1
70 54 1
25 55 1
57 55 1
71 55 1
26 56 1
58 56 1
72 56 1
27 57 1
59 57 1
73 57 1
28 58 1
60 58 1
74 58 1
29 59 1
31 59 1
75 59 1
30 60 1
32 60 1
76 60 1
1 61 1
45 61 1
72 61 1
2 62 1
46 62 1
73 62 1
3 63 1
47 63 1
74 63 1
4 64 1
48 64 1
75 64 1
5 65 1
49 65 1
76 65 1
6 66 1
50 66 1
77 66 1
7 67 1
51 67 1
78 67 1
8 68 1
52 68 1
79 68 1
9 69 1
53 69 1
80 69 1
10 70 1
54 70 1
81 70 1
11 71 1
55 71 1
82 71 1
12 72 1
56 72 1
83 72 1
13 73 1
57 73 1
84 73 1
14 74 1
58 74 1
85 74 1
15 75 1
59 75 1
86 75 1
16 76 1
60 76 1
87 76 1
17 77 1
31 77 1
88 77 1
18 78 1
32 78 1
89 78 1
19 79 1
33 79 1
90 79 1
20 80 1
34 80 1
61 80 1
21 81 1
35 81 1
62 81 1
22 82 1
36 82 1
63 82 1
23 83 1
37 83 1
64 83 1
24 84 1
38 84 1
65 84 1
25 85 1
39 85 1
66 85 1
26 86 1
40 86 1
67 86 1
27 87 1
41 87 1
68 87 1
28 88 1
42 88 1
69 88 1
29 89 1
43 89 1
70 89 1
30 90 1
44 90 1
71 90 1
1 91 1
55 91 1
75 91 1
2 92 1
56 92 1
76 92 1
3 93 1
57 93 1
77 93 1
4 94 1
58 94 1
78 94 1
5 95 1
59 95 1
79 95 1
6 96 1
60 96 1
80 96 1
7 97 1
31 97 1
81 97 1
8 98 1
32 98 1
82 98 1
9 99 1
33 99 1
83 99 1
10 100 1
34 100 1
84 100 1
11 101 1
35 101 1
85 101 1
12 102 1
36 102 1
86 102 1
13 103 1
37 103 1
87 103 1
14 104 1
38 104 1
88 104 1
15 105 1
39 105 1
89 105 1
16 106 1
40 106 1
90 106 1
17 107 1
41 107 1
61 107 1
18 108 1
42 108 1
62 108 1
19 109 1
43 109 1
63 109 1
20 110 1
44 110 1
64 110 1
21 111 1
45 111 1
65 111 1
22 112 1
46 112 1
66 112 1
23 113 1
47 113 1
67 113 1
24 114 1
48 114 1
68 114 1
25 115 1
49 115 1
69 115 1
26 116 1
50 116 1
70 116 1
27 117 1
51 117 1
71 117 1
28 118 1
52 118 1
72 118 1
29 119 1
53 119 1
73 119 1
30 120 1
54 120 1
74 120 1
1 121 1
56 121 1
74 121 1
2 122 1
57 122 1
75 122 1
3 123 1
58 123 1
76 123 1
4 124 1
59 124 1
77 124 1
5 125 1
60 125 1
78 125 1
6 126 1
31 126 1
79 126 1
7 127 1
32 127 1
80 127 1
8 128 1
33 128 1
81 128 1
9 129 1
34 129 1
82 129 1
10 130 1
35 130 1
83 130 1
11 131 1
36 131 1
84 131 1
12 132 1
37 132 1
85 132 1
13 133 1
38 133 1
86 133 1
14 134 1
39 134 1
87 134 1
15 135 1
40 135 1
88 135 1
16 136 1
41 136 1
89 136 1
17 137 1
42 137 1
90 137 1
18 138 1
43 138 1
61 138 1
19 139 1
44 139 1
62 139 1
20 140 1
45 140 1
63 140 1
21 141 1
46 141 1
64 141 1
22 142 1
47 142 1
65 142 1
23 143 1
48 143 1
66 143 1
24 144 1
49 144 1
67 144 1
25 145 1
50 145 1
68 145 1
26 146 1
51 146 1
69 146 1
27 147 1
52 147 1
70 147 1
28 148 1
53 148 1
71 148 1
29 149 1
54 149 1
72 149 1
30 150 1
55 150 1
73 150 1
91 151 1
121 151 1
151 151 1
92 152 1
122 152 1
152 152 1
93 153 1
123 153 1
153 153 1
94 154 1
124 154 1
154 154 1
95 155 1
125 155 1
155 155 1
96 156 1
126 156 1
156 156 1
97 157 1
127 157 1
157 157 1
98 158 1
128 158 1
158 158 1
99 159 1
129 159 1
159 159 1
100 160 1
130 160 1
160 160 1
101 161 1
131 161 1
161 161 1
102 162 1
132 162 1
162 162 1
103 163 1
133 163 1
163 163 1
104 164 1
134 164 1
164 164 1
105 165 1
135 165 1
165 165 1
106 166 1
136 166 1
166 166 1
107 167 1
137 167 1
167 167 1
108 168 1
138 168 1
168 168 1
109 169 1
139 169 1
169 169 1
110 170 1
140 170 1
170 170 1
111 171 1
141 171 1
171 171 1
112 172 1
142 172 1
172 172 1
113 173 1
143 173 1
173 173 1
114 174 1
144 174 1
174 174 1
115 175 1
145 175 1
175 175 1
116 176 1
146 176 1
176 176 1
117 177 1
147 177 1
177 177 1
118 178 1
148 178 1
178 178 1
119 179 1
149 179 1
179 179 1
120 180 1
150 180 1
180 180 1
91 181 1
123 181 1
167 181 1
92 182 1
124 182 1
168 182 1
93 183 1
125 183 1
169 183 1
94 184 1
126 184 1
170 184 1
95 185 1
127 185 1
171 185 1
96 186 1
128 186 1
172 186 1
97 187 1
129 187 1
173 187 1
98 188 1
130 188 1
174 188 1
99 189 1
131 189 1
175 189 1
100 190 1
132 190 1
176 190 1
101 191 1
133 191 1
177 191 1
102 192 1
134 192 1
178 192 1
103 193 1
135 193 1
179 193 1
104 194 1
136 194 1
180 194 1
105 195 1
137 195 1
151 195 1
106 196 1
138 196 1
152 196 1
107 197 1
139 197 1
153 197 1
108 198 1
140 198 1
154 198 1
109 199 1
141 199 1
155 199 1
110 200 1
142 200 1
156 200 1
111 201 1
143 201 1
157 201 1
112 202 1
144 202 1
158 202 1
113 203 1
145 203 1
159 203 1
114 204 1
146 204 1
160 204 1
115 205 1
147 205 1
161 205 1
116 206 1
148 206 1
162 206 1
117 207 1
149 207 1
163 207 1
118 208 1
150 208 1
164 208 1
119 209 1
121 209 1
165 209 1
120 210 1
122 210 1
166 210 1
91 211 1
135 211 1
162 211 1
92 212 1
136 212 1
163 212 1
93 213 1
137 213 1
164 213 1
94 214 1
138 214 1
165 214 1
95 215 1
139 215 1
166 215 1
96 216 1
140 216 1
167 216 1
97 217 1
141 217 1
168 217 1
98 218 1
142 218 1
169 218 1
99 219 1
143 219 1
170 219 1
100 220 1
144 220 1
171 220 1
101 221 1
145 221 1
172 221 1
102 222 1
146 222 1
173 222 1
103 223 1
147 223 1
174 223 1
104 224 1
148 224 1
175 224 1
105 225 1
149 225 1
176 225 1
106 226 1
150 226 1
177 226 1
107 227 1
121 227 1
178 227 1
108 228 1
122 228 1
179 228 1
109 229 1
123 229 1
180 229 1
110 230 1
124 230 1
151 230 1
111 231 1
125 231 1
152 231 1
112 232 1
126 232 1
153 232 1
113 233 1
127 233 1
154 233 1
114 234 1
128 234 1
155 234 1
115 235 1
129 235 1
156 235 1
116 236 1
130 236 1
157 236 1
117 237 1
131 237 1
158 237 1
118 238 1
132 238 1
159 238 1
119 239 1
133 239 1
160 239 1
120 240 1
134 240 1
161 240 1
91 241 1
145 241 1
165 241 1
92 242 1
146 242 1
166 242 1
93 243 1
147 243 1
167 243 1
94 244 1
148 244 1
168 244 1
95 245 1
149 245 1
169 245 1
96 246 1
150 246 1
170 246 1
97 247 1
121 247 1
171 247 1
98 248 1
122 248 1
172 248 1
99 249 1
123 249 1
173 249 1
100 250 1
124 250 1
174 250 1
101 251 1
125 251 1
175 251 1
102 252 1
126 252 1
176 252 1
103 253 1
127 253 1
177 253 1
104 254 1
128 254 1
178 254 1
105 255 1
129 255 1
179 255 1
106 256 1
130 256 1
180 256 1
107 257 1
131 257 1
151 257 1
108 258 1
132 258 1
152 258 1
109 259 1
133 259 1
153 259 1
110 260 1
134 260 1
154 260 1
111 261 1
135 261 1
155 261 1
112 262 1
136 262 1
156 262 1
113 263 1
137 263 1
157 263 1
114 264 1
138 264 1
158 264 1
115 265 1
139 265 1
159 265 1
116 266 1
140 266 1
160 266 1
117 267 1
141 267 1
161 267 1
118 268 1
142 268 1
162 268 1
119 269 1
143 269 1
163 269 1
120 270 1
144 270 1
164 270 1
91 271 1
146 271 1
164 271 1
92 272 1
147 272 1
165 272 1
93 273 1
148 273 1
166 273 1
94 274 1
149 274 1
167 274 1
95 275 1
150 275 1
168 275 1
96 276 1
121 276 1
169 276 1
97 277 1
122 277 1
170 277 1
98 278 1
123 278 1
171 278 1
99 279 1
124 279 1
172 279 1
100 280 1
125 280 1
173 280 1
101 281 1
126 281 1
174 281 1
102 282 1
127 282 1
175 282 1
103 283 1
128 283 1
176 283 1
104 284 1
129 284 1
177 284 1
105 285 1
130 285 1
178 285 1
106 286 1
131 286 1
179 286 1
107 287 1
132 287 1
180 287 1
108 288 1
133 288 1
151 288 1
109 289 1
134 289 1
152 289 1
110 290 1
135 290 1
153 290 1
111 291 1
136 291 1
154 291 1
112 292 1
137 292 1
155 292 1
113 293 1
138 293 1
156 293 1
114 294 1
139 294 1
157 294 1
115 295 1
140 295 1
158 295 1
116 296 1
141 296 1
159 296 1
117 297 1
142 297 1
160 297 1
118 298 1
143 298 1
161 298 1
119 299 1
144 299 1
162 299 1
120 300 1
145 300 1
163 300 1
181 301 1
211 301 1
241 301 1
182 302 1
212 302 1
242 302 1
183 303 1
213 303 1
243 303 1
184 304 1
214 304 1
244 304 1
185 305 1
215 305 1
245 305 1
186 306 1
216 306 1
246 306 1
187 307 1
217 307 1
247 307 1
188 308 1
218 308 1
248 308 1
189 309 1
219 309 1
249 309 1
190 310 1
220 310 1
250 310 1
191 311 1
221 311 1
251 311 1
192 312 1
222 312 1
252 312 1
193 313 1
223 313 1
253 313 1
194 314 1
224 314 1
254 314 1
195 315 1
225 315 1
255 315 1
196 316 1
226 316 1
256 316 1
197 317 1
227 317 1
257 317 1
198 318 1
228 318 1
258 318 1
199 319 1
229 319 1
259 319 1
200 320 1
230 320 1
260 320 1
201 321 1
231 321 1
261 321 1
202 322 1
232 322 1
262 322 1
203 323 1
233 323 1
263 323 1
204 324 1
234 324 1
264 324 1
205 325 1
235 325 1
265 325 1
206 326 1
236 326 1
266 326 1
207 327 1
237 327 1
267 327 1
208 328 1
238 328 1
268 328 1
209 329 1
239 329 1
269 329 1
210 330 1
240 330 1
270 330 1
181 331 1
213 331 1
257 331 1
182 332 1
214 332 1
258 332 1
183 333 1
215 333 1
259 333 1
184 334 1
216 334 1
260 334 1
185 335 1
217 335 1
261 335 1
186 336 1
218 336 1
262 336 1
187 337 1
219 337 1
263 337 1
188 338 1
220 338 1
264 338 1
189 339 1
221 339 1
265 339 1
190 340 1
222 340 1
266 340 1
191 341 1
223 341 1
267 341 1
192 342 1
224 342 1
268 342 1
193 343 1
225 343 1
269 343 1
194 344 1
226 344 1
270 344 1
195 345 1
227 345 1
241 345 1
196 346 1
228 346 1
242 346 1
197 347 1
229 347 1
243 347 1
198 348 1
230 348 1
244 348 1
199 349 1
231 349 1
245 349 1
200 350 1
232 350 1
246 350 1
201 351 1
233 351 1
247 351 1
202 352 1
234 352 1
248 352 1
203 353 1
235 353 1
249 353 1
204 354 1
236 354 1
250 354 1
205 355 1
237 355 1
251 355 1
206 356 1
238 356 1
252 356 1
207 357 1
239 357 1
253 357 1
208 358 1
240 358 1
254 358 1
209 359 1
211 359 1
255 359 1
210 360 1
212 360 1
256 360 1
181 361 1
225 361 1
252 361 1
182 362 1
226 362 1
253 362 1
183 363 1
227 363 1
254 363 1
184 364 1
228 364 1
255 364 1
185 365 1
229 365 1
256 365 1
186 366 1
230 366 1
257 366 1
187 367 1
231 367 1
258 367 1
188 368 1
232 368 1
259 368 1
189 369 1
233 369 1
260 369 1
190 370 1
234 370 1
261 370 1
191 371 1
235 371 1
262 371 1
192 372 1
236 372 1
263 372 1
193 373 1
237 373 1
264 373 1
194 374 1
238 374 1
265 374 1
195 375 1
239 375 1
266 375 1
196 376 1
240 376 1
267 376 1
197 377 1
211 377 1
268 377 1
198 378 1
212 378 1
269 378 1
199 379 1
213 379 1
270 379 1
200 380 1
214 380 1
241 380 1
201 381 1
215 381 1
242 381 1
202 382 1
216 382 1
243 382 1
203 383 1
217 383 1
244 383 1
204 384 1
218 384 1
245 384 1
205 385 1
219 385 1
246 385 1
206 386 1
220 386 1
247 386 1
207 387 1
221 387 1
248 387 1
208 388 1
222 388 1
249 388 1
209 389 1
223 389 1
250 389 1
210 390 1
224 390 1
251 390 1
181 391 1
235 391 1
255 391 1
182 392 1
236 392 1
256 392 1
183 393 1
237 393 1
257 393 1
184 394 1
238 394 1
258 394 1
185 395 1
239 395 1
259 395 1
186 396 1
240 396 1
260 396 1
187 397 1
211 397 1
261 397 1
188 398 1
212 398 1
262 398 1
189 399 1
213 399 1
263 399 1
190 400 1
214 400 1
264 400 1
191 401 1
215 401 1
265 401 1
192 402 1
216 402 1
266 402 1
193 403 1
217 403 1
267 403 1
194 404 1
218 404 1
268 404 1
195 405 1
219 405 1
269 405 1
196 406 1
220 406 1
270 406 1
197 407 1
221 407 1
241 407 1
198 408 1
222 408 1
242 408 1
199 409 1
223 409 1
243 409 1
200 410 1
224 410 1
244 410 1
201 411 1
225 411 1
245 411 1
202 412 1
226 412 1
246 412 1
203 413 1
227 413 1
247 413 1
204 414 1
228 414 1
248 414 1
205 415 1
229 415 1
249 415 1
206 416 1
230 416 1
250 416 1
207 417 1
231 417 1
251 417 1
208 418 1
232 418 1
252 418 1
209 419 1
233 419 1
253 419 1
210 420 1
234 420 1
254 420 1
181 421 1
236 421 1
254 421 1
182 422 1
237 422 1
255 422 1
183 423 1
238 423 1
256 423 1
184 424 1
239 424 1
257 424 1
185 425 1
240 425 1
258 425 1
186 426 1
211 426 1
259 426 1
187 427 1
212 427 1
260 427 1
188 428 1
213 428 1
261 428 1
189 429 1
214 429 1
262 429 1
190 430 1
215 430 1
263 430 1
191 431 1
216 431 1
264 431 1
192 432 1
217 432 1
265 432 1
193 433 1
218 433 1
266 433 1
194 434 1
219 434 1
267 434 1
195 435 1
220 435 1
268 435 1
196 436 1
221 436 1
269 436 1
197 437 1
222 437 1
270 437 1
198 438 1
223 438 1
241 438 1
199 439 1
224 439 1
242 439 1
200 440 1
225 440 1
243 440 1
201 441 1
226 441 1
244 441 1
202 442 1
227 442 1
245 442 1
203 443 1
228 443 1
246 443 1
204 444 1
229 444 1
247 444 1
205 445 1
230 445 1
248 445 1
206 446 1
231 446 1
249 446 1
207 447 1
232 447 1
250 447 1
208 448 1
233 448 1
251 448 1
209 449 1
234 449 1
252 449 1
210 450 1
235 450 1
253 450 1
271 451 1
301 451 1
331 451 1
272 452 1
302 452 1
332 452 1
273 453 1
303 453 1
333 453 1
274 454 1
304 454 1
334 454 1
275 455 1
305 455 1
335 455 1
276 456 1
306 456 1
336 456 1
277 457 1
307 457 1
337 457 1
278 458 1
308 458 1
338 458 1
279 459 1
309 459 1
339 459 1
280 460 1
310 460 1
340 460 1
281 461 1
311 461 1
341 461 1
282 462 1
312 462 1
342 462 1
283 463 1
313 463 1
343 463 1
284 464 1
314 464 1
344 464 1
285 465 1
315 465 1
345 465 1
286 466 1
316 466 1
346 466 1
287 467 1
317 467 1
347 467 1
288 468 1
318 468 1
348 468 1
289 469 1
319 469 1
349 469 1
290 470 1
320 470 1
350 470 1
291 471 1
321 471 1
351 471 1
292 472 1
322 472 1
352 472 1
293 473 1
323 473 1
353 473 1
294 474 1
324 474 1
354 474 1
295 475 1
325 475 1
355 475 1
296 476 1
326 476 1
356 476 1
297 477 1
327 477 1
357 477 1
298 478 1
328 478 1
358 478 1
299 479 1
329 479 1
359 479 1
300 480 1
330 480 1
360 480 1
271 481 1
303 481 1
347 481 1
272 482 1
304 482 1
348 482 1
273 483 1
305 483 1
349 483 1
274 484 1
306 484 1
350 484 1
275 485 1
307 485 1
351 485 1
276 486 1
308 486 1
352 486 1
277 487 1
309 487 1
353 487 1
278 488 1
310 488 1
354 488 1
279 489 1
311 489 1
355 489 1
280 490 1
312 490 1
356 490 1
281 491 1
313 491 1
357 491 1
282 492 1
314 492 1
358 492 1
283 493 1
315 493 1
359 493 1
284 494 1
316 494 1
360 494 1
285 495 1
317 495 1
331 495 1
286 496 1
318 496 1
332 496 1
287 497 1
319 497 1
333 497 1
288 498 1
320 498 1
334 498 1
289 499 1
321 499 1
335 499 1
290 500 1
322 500 1
336 500 1
291 501 1
323 501 1
337 501 1
292 502 1
324 502 1
338 502 1
293 503 1
325 503 1
339 503 1
294 504 1
326 504 1
340 504 1
295 505 1
327 505 1
341 505 1
296 506 1
328 506 1
342 506 1
297 507 1
329 507 1
343 507 1
298 508 1
330 508 1
344 508 1
299 509 1
301 509 1
345 509 1
300 510 1
302 510 1
346 510 1
271 511 1
315 511 1
342 511 1
272 512 1
316 512 1
343 512 1
273 513 1
317 513 1
344 513 1
274 514 1
318 514 1
345 514 1
275 515 1
319 515 1
346 515 1
276 516 1
320 516 1
347 516 1
277 517 1
321 517 1
348 517 1
278 518 1
322 518 1
349 518 1
279 519 1
323 519 1
350 519 1
280 520 1
324 520 1
351 520 1
281 521 1
325 521 1
352 521 1
282 522 1
326 522 1
353 522 1
283 523 1
327 523 1
354 523 1
284 524 1
328 524 1
355 524 1
285 525 1
329 525 1
356 525 1
286 526 1
330 526 1
357 526 1
287 527 1
301 527 1
358 527 1
288 528 1
302 528 1
359 528 1
289 529 1
303 529 1
360 529 1
290 530 1
304 530 1
331 530 1
291 531 1
305 531 1
332 531 1
292 532 1
306 532 1
333 532 1
293 533 1
307 533 1
334 533 1
294 534 1
308 534 1
335 534 1
295 535 1
309 535 1
336 535 1
296 536 1
310 536 1
337 536 1
297 537 1
311 537 1
338 537 1
298 538 1
312 538 1
339 538 1
299 539 1
313 539 1
340 539 1
300 540 1
314 540 1
341 540 1
271 541 1
325 541 1
345 541 1
272 542 1
326 542 1
346 542 1
273 543 1
327 543 1
347 543 1
274 544 1
328 544 1
348 544 1
275 545 1
329 545 1
349 545 1
276 546 1
330 546 1
350 546 1
277 547 1
301 547 1
351 547 1
278 548 1
302 548 1
352 548 1
279 549 1
303 549 1
353 549 1
280 550 1
304 550 1
354 550 1
281 551 1
305 551 1
355 551 1
282 552 1
306 552 1
356 552 1
283 553 1
307 553 1
357 553 1
284 554 1
308 554 1
358 554 1
285 555 1
309 555 1
359 555 1
286 556 1
310 556 1
360 556 1
287 557 1
311 557 1
331 557 1
288 558 1
312 558 1
332 558 1
289 559 1
313 559 1
333 559 1
290 560 1
314 560 1
334 560 1
291 561 1
315 561 1
335 561 1
292 562 1
316 562 1
336 562 1
293 563 1
317 563 1
337 563 1
294 564 1
318 564 1
338 564 1
295 565 1
319 565 1
339 565 1
296 566 1
320 566 1
340 566 1
297 567 1
321 567 1
341 567 1
298 568 1
322 568 1
342 568 1
299 569 1
323 569 1
343 569 1
300 570 1
324 570 1
344 570 1
271 571 1
326 571 1
344 571 1
272 572 1
327 572 1
345 572 1
273 573 1
328 573 1
346 573 1
274 574 1
329 574 1
347 574 1
275 575 1
330 575 1
348 575 1
276 576 1
301 576 1
349 576 1
277 577 1
302 577 1
350 577 1
278 578 1
303 578 1
351 578 1
279 579 1
304 579 1
352 579 1
280 580 1
305 580 1
353 580 1
281 581 1
306 581 1
354 581 1
282 582 1
307 582 1
355 582 1
283 583 1
308 583 1
356 583 1
284 584 1
309 584 1
357 584 1
285 585 1
310 585 1
358 585 1
286 586 1
311 586 1
359 586 1
287 587 1
312 587 1
360 587 1
288 588 1
313 588 1
331 588 1
289 589 1
314 589 1
332 589 1
290 590 1
315 590 1
333 590 1
291 591 1
316 591 1
334 591 1
292 592 1
317 592 1
335 592 1
293 593 1
318 593 1
336 593 1
294 594 1
319 594 1
337 594 1
295 595 1
320 595 1
338 595 1
296 596 1
321 596 1
339 596 1
297 597 1
322 597 1
340 597 1
298 598 1
323 598 1
341 598 1
299 599 1
324 599 1
342 599 1
300 600 1
325 600 1
343 600 1
361 601 1
391 601 1
421 601 1
362 602 1
392 602 1
422 602 1
363 603 1
393 603 1
423 603 1
364 604 1
394 604 1
424 604 1
365 605 1
395 605 1
425 605 1
366 606 1
396 606 1
426 606 1
367 607 1
397 607 1
427 607 1
368 608 1
398 608 1
428 608 1
369 609 1
399 609 1
429 609 1
370 610 1
400 610 1
430 610 1
371 611 1
401 611 1
431 611 1
372 612 1
402 612 1
432 612 1
373 613 1
403 613 1
433 613 1
374 614 1
404 614 1
434 614 1
375 615 1
405 615 1
435 615 1
376 616 1
406 616 1
436 616 1
377 617 1
407 617 1
437 617 1
378 618 1
408 618 1
438 618 1
379 619 1
409 619 1
439 619 1
380 620 1
410 620 1
440 620 1
381 621 1
411 621 1
441 621 1
382 622 1
412 622 1
442 622 1
383 623 1
413 623 1
443 623 1
384 624 1
414 624 1
444 624 1
385 625 1
415 625 1
445 625 1
386 626 1
416 626 1
446 626 1
387 627 1
417 627 1
447 627 1
388 628 1
418 628 1
448 628 1
389 629 1
419 629 1
449 629 1
390 630 1
420 630 1
450 630 1
361 631 1
393 631 1
437 631 1
362 632 1
394 632 1
438 632 1
363 633 1
395 633 1
439 633 1
364 634 1
396 634 1
440 634 1
365 635 1
397 635 1
441 635 1
366 636 1
398 636 1
442 636 1
367 637 1
399 637 1
443 637 1
368 638 1
400 638 1
444 638 1
369 639 1
401 639 1
445 639 1
370 640 1
402 640 1
446 640 1
371 641 1
403 641 1
447 641 1
372 642 1
404 642 1
448 642 1
373 643 1
405 643 1
449 643 1
374 644 1
406 644 1
450 644 1
375 645 1
407 645 1
421 645 1
376 646 1
408 646 1
422 646 1
377 647 1
409 647 1
423 647 1
378 648 1
410 648 1
424 648 1
379 649 1
411 649 1
425 649 1
380 650 1
412 650 1
426 650 1
381 651 1
413 651 1
427 651 1
382 652 1
414 652 1
428 652 1
383 653 1
415 653 1
429 653 1
384 654 1
416 654 1
430 654 1
385 655 1
417 655 1
431 655 1
386 656 1
418 656 1
432 656 1
387 657 1
419 657 1
433 657 1
388 658 1
420 658 1
434 658 1
389 659 1
391 659 1
435 659 1
390 660 1
392 660 1
436 660 1
361 661 1
405 661 1
432 661 1
362 662 1
406 662 1
433 662 1
363 663 1
407 663 1
434 663 1
364 664 1
408 664 1
435 664 1
365 665 1
409 665 1
436 665 1
366 666 1
410 666 1
437 666 1
367 667 1
411 667 1
438 667 1
368 668 1
412 668 1
439 668 1
369 669 1
413 669 1
440 669 1
370 670 1
414 670 1
441 670 1
371 671 1
415 671 1
442 671 1
372 672 1
416 672 1
443 672 1
373 673 1
417 673 1
444 673 1
374 674 1
418 674 1
445 674 1
375 675 1
419 675 1
446 675 1
376 676 1
420 676 1
447 676 1
377 677 1
391 677 1
448 677 1
378 678 1
392 678 1
449 678 1
379 679 1
393 679 1
450 679 1
380 680 1
394 680 1
421 680 1
381 681 1
395 681 1
422 681 1
382 682 1
396 682 1
423 682 1
383 683 1
397 683 1
424 683 1
384 684 1
398 684 1
425 684 1
385 685 1
399 685 1
426 685 1
386 686 1
400 686 1
427 686 1
387 687 1
401 687 1
428 687 1
388 688 1
402 688 1
429 688 1
389 689 1
403 689 1
430 689 1
390 690 1
404 690 1
431 690 1
361 691 1
415 691 1
435 691 1
362 692 1
416 692 1
436 692 1
363 693 1
417 693 1
437 693 1
364 694 1
418 694 1
438 694 1
365 695 1
419 695 1
439 695 1
366 696 1
420 696 1
440 696 1
367 697 1
391 697 1
441 697 1
368 698 1
392 698 1
442 698 1
369 699 1
393 699 1
443 699 1
370 700 1
394 700 1
444 700 1
371 701 1
395 701 1
445 701 1
372 702 1
396 702 1
446 702 1
373 703 1
397 703 1
447 703 1
374 704 1
398 704 1
448 704 1
375 705 1
399 705 1
449 705 1
376 706 1
400 706 1
450 706 1
377 707 1
401 707 1
421 707 1
378 708 1
402 708 1
422 708 1
379 709 1
403 709 1
423 709 1
380 710 1
404 710 1
424 710 1
381 711 1
405 711 1
425 711 1
382 712 1
406 712 1
426 712 1
383 713 1
407 713 1
427 713 1
384 714 1
408 714 1
428 714 1
385 715 1
409 715 1
429 715 1
386 716 1
410 716 1
430 716 1
387 717 1
411 717 1
431 717 1
388 718 1
412 718 1
432 718 1
389 719 1
413 719 1
433 719 1
390 720 1
414 720 1
434 720 1
361 721 1
416 721 1
434 721 1
362 722 1
417 722 1
435 722 1
363 723 1
418 723 1
436 723 1
364 724 1
419 724 1
437 724 1
365 725 1
420 725 1
438 725 1
366 726 1
391 726 1
439 726 1
367 727 1
392 727 1
440 727 1
368 728 1
393 728 1
441 728 1
369 729 1
394 729 1
442 729 1
370 730 1
395 730 1
443 730 1
371 731 1
396 731 1
444 731 1
372 732 1
397 732 1
445 732 1
373 733 1
398 733 1
446 733 1
374 734 1
399 734 1
447 734 1
375 735 1
400 735 1
448 735 1
376 736 1
401 736 1
449 736 1
377 737 1
402 737 1
450 737 1
378 738 1
403 738 1
421 738 1
379 739 1
404 739 1
422 739 1
380 740 1
405 740 1
423 740 1
381 741 1
406 741 1
424 741 1
382 742 1
407 742 1
425 742 1
383 743 1
408 743 1
426 743 1
384 744 1
409 744 1
427 744 1
385 745 1
410 745 1
428 745 1
386 746 1
411 746 1
429 746 1
387 747 1
412 747 1
430 747 1
388 748 1
413 748 1
431 748 1
389 749 1
414 749 1
432 749 1
390 750 1
415 750 1
433 750 1
1 751 1
91 751 1
181 751 1
271 751 1
361 751 1
2 752 1
92 752 1
182 752 1
272 752 1
362 752 1
3 753 1
93 753 1
183 753 1
273 753 1
363 753 1
4 754 1
94 754 1
184 754 1
274 754 1
364 754 1
5 755 1
95 755 1
185 755 1
275 755 1
365 755 1
6 756 1
96 756 1
186 756 1
276 756 1
366 756 1
7 757 1
97 757 1
187 757 1
277 757 1
367 757 1
8 758 1
98 758 1
188 758 1
278 758 1
368 758 1
9 759 1
99 759 1
189 759 1
279 759 1
369 759 1
10 760 1
100 760 1
190 760 1
280 760 1
370 760 1
11 761 1
101 761 1
191 761 1
281 761 1
371 761 1
12 762 1
102 762 1
192 762 1
282 762 1
372 762 1
13 763 1
103 763 1
193 763 1
283 763 1
373 763 1
14 764 1
104 764 1
194 764 1
284 764 1
374 764 1
15 765 1
105 765 1
195 765 1
285 765 1
375 765 1
16 766 1
106 766 1
196 766 1
286 766 1
376 766 1
17 767 1
107 767 1
197 767 1
287 767 1
377 767 1
18 768 1
108 768 1
198 768 1
288 768 1
378 768 1
19 769 1
109 769 1
199 769 1
289 769 1
379 769 1
20 770 1
110 770 1
200 770 1
290 770 1
380 770 1
21 771 1
111 771 1
201 771 1
291 771 1
381 771 1
22 772 1
112 772 1
202 772 1
292 772 1
382 772 1
23 773 1
113 773 1
203 773 1
293 773 1
383 773 1
24 774 1
114 774 1
204 774 1
294 774 1
384 774 1
25 775 1
115 775 1
205 775 1
295 775 1
385 775 1
26 776 1
116 776 1
206 776 1
296 776 1
386 776 1
27 777 1
117 777 1
207 777 1
297 777 1
387 777 1
28 778 1
118 778 1
208 778 1
298 778 1
388 778 1
29 779 1
119 779 1
209 779 1
299 779 1
389 779 1
30 780 1
120 780 1
210 780 1
300 780 1
390 780 1
31 781 1
121 781 1
211 781 1
301 781 1
391 781 1
32 782 1
122 782 1
212 782 1
302 782 1
392 782 1
33 783 1
123 783 1
213 783 1
303 783 1
393 783 1
34 784 1
124 784 1
214 784 1
304 784 1
394 784 1
35 785 1
125 785 1
215 785 1
305 785 1
395 785 1
36 786 1
126 786 1
216 786 1
306 786 1
396 786 1
37 787 1
127 787 1
217 787 1
307 787 1
397 787 1
38 788 1
128 788 1
218 788 1
308 788 1
398 788 1
39 789 1
129 789 1
219 789 1
309 789 1
399 789 1
40 790 1
130 790 1
220 790 1
310 790 1
400 790 1
41 791 1
131 791 1
221 791 1
311 791 1
401 791 1
42 792 1
132 792 1
222 792 1
312 792 1
402 792 1
43 793 1
133 793 1
223 793 1
313 793 1
403 793 1
44 794 1
134 794 1
224 794 1
314 794 1
404 794 1
45 795 1
135 795 1
225 795 1
315 795 1
405 795 1
46 796 1
136 796 1
226 796 1
316 796 1
406 796 1
47 797 1
137 797 1
227 797 1
317 797 1
407 797 1
48 798 1
138 798 1
228 798 1
318 798 1
408 798 1
49 799 1
139 799 1
229 799 1
319 799 1
409 799 1
50 800 1
140 800 1
230 800 1
320 800 1
410 800 1
51 801 1
141 801 1
231 801 1
321 801 1
411 801 1
52 802 1
142 802 1
232 802 1
322 802 1
412 802 1
53 803 1
143 803 1
233 803 1
323 803 1
413 803 1
54 804 1
144 804 1
234 804 1
324 804 1
414 804 1
55 805 1
145 805 1
235 805 1
325 805 1
415 805 1
56 806 1
146 806 1
236 806 1
326 806 1
416 806 1
57 807 1
147 807 1
237 807 1
327 807 1
417 807 1
58 808 1
148 808 1
238 808 1
328 808 1
418 808 1
59 809 1
149 809 1
239 809 1
329 809 1
419 809 1
60 810 1
150 810 1
240 810 1
330 810 1
420 810 1
61 811 1
151 811 1
241 811 1
331 811 1
421 811 1
62 812 1
152 812 1
242 812 1
332 812 1
422 812 1
63 813 1
153 813 1
243 813 1
333 813 1
423 813 1
64 814 1
154 814 1
244 814 1
334 814 1
424 814 1
65 815 1
155 815 1
245 815 1
335 815 1
425 815 1
66 816 1
156 816 1
246 816 1
336 816 1
426 816 1
67 817 1
157 817 1
247 817 1
337 817 1
427 817 1
68 818 1
158 818 1
248 818 1
338 818 1
428 818 1
69 819 1
159 819 1
249 819 1
339 819 1
429 819 1
70 820 1
160 820 1
250 820 1
340 820 1
430 820 1
71 821 1
161 821 1
251 821 1
341 821 1
431 821 1
72 822 1
162 822 1
252 822 1
342 822 1
432 822 1
73 823 1
163 823 1
253 823 1
343 823 1
433 823 1
74 824 1
164 824 1
254 824 1
344 824 1
434 824 1
75 825 1
165 825 1
255 825 1
345 825 1
435 825 1
76 826 1
166 826 1
256 826 1
346 826 1
436 826 1
77 827 1
167 827 1
257 827 1
347 827 1
437 827 1
78 828 1
168 828 1
258 828 1
348 828 1
438 828 1
79 829 1
169 829 1
259 829 1
349 829 1
439 829 1
80 830 1
170 830 1
260 830 1
350 830 1
440 830 1
81 831 1
171 831 1
261 831 1
351 831 1
441 831 1
82 832 1
172 832 1
262 832 1
352 832 1
442 832 1
83 833 1
173 833 1
263 833 1
353 833 1
443 833 1
84 834 1
174 834 1
264 834 1
354 834 1
444 834 1
85 835 1
175 835 1
265 835 1
355 835 1
445 835 1
86 836 1
176 836 1
266 836 1
356 836 1
446 836 1
87 837 1
177 837 1
267 837 1
357 837 1
447 837 1
88 838 1
178 838 1
268 838 1
358 838 1
448 838 1
89 839 1
179 839 1
269 839 1
359 839 1
449 839 1
90 840 1
180 840 1
270 840 1
360 840 1
450 840 1
1 841 1
119 841 1
197 841 1
277 841 1
366 841 1
2 842 1
120 842 1
198 842 1
278 842 1
367 842 1
3 843 1
91 843 1
199 843 1
279 843 1
368 843 1
4 844 1
92 844 1
200 844 1
280 844 1
369 844 1
5 845 1
93 845 1
201 845 1
281 845 1
370 845 1
6 846 1
94 846 1
202 846 1
282 846 1
371 846 1
7 847 1
95 847 1
203 847 1
283 847 1
372 847 1
8 848 1
96 848 1
204 848 1
284 848 1
373 848 1
9 849 1
97 849 1
205 849 1
285 849 1
374 849 1
10 850 1
98 850 1
206 850 1
286 850 1
375 850 1
11 851 1
99 851 1
207 851 1
287 851 1
376 851 1
12 852 1
100 852 1
208 852 1
288 852 1
377 852 1
13 853 1
101 853 1
209 853 1
289 853 1
378 853 1
14 854 1
102 854 1
210 854 1
290 854 1
379 854 1
15 855 1
103 855 1
181 855 1
291 855 1
380 855 1
16 856 1
104 856 1
182 856 1
292 856 1
381 856 1
17 857 1
105 857 1
183 857 1
293 857 1
382 857 1
18 858 1
106 858 1
184 858 1
294 858 1
383 858 1
19 859 1
107 859 1
185 859 1
295 859 1
384 859 1
20 860 1
108 860 1
186 860 1
296 860 1
385 860 1
21 861 1
109 861 1
187 861 1
297 861 1
386 861 1
22 862 1
110 862 1
188 862 1
298 862 1
387 862 1
23 863 1
111 863 1
189 863 1
299 863 1
388 863 1
24 864 1
112 864 1
190 864 1
300 864 1
389 864 1
25 865 1
113 865 1
191 865 1
271 865 1
390 865 1
26 866 1
114 866 1
192 866 1
272 866 1
361 866 1
27 867 1
115 867 1
193 867 1
273 867 1
362 867 1
28 868 1
116 868 1
194 868 1
274 868 1
363 868 1
29 869 1
117 869 1
195 869 1
275 869 1
364 869 1
30 870 1
118 870 1
196 870 1
276 870 1
365 870 1
31 871 1
149 871 1
227 871 1
307 871 1
396 871 1
32 872 1
150 872 1
228 872 1
308 872 1
397 872 1
33 873 1
121 873 1
229 873 1
309 873 1
398 873 1
34 874 1
122 874 1
230 874 1
310 874 1
399 874 1
35 875 1
123 875 1
231 875 1
311 875 1
400 875 1
36 876 1
124 876 1
232 876 1
312 876 1
401 876 1
37 877 1
125 877 1
233 877 1
313 877 1
402 877 1
38 878 1
126 878 1
234 878 1
314 878 1
403 878 1
39 879 1
127 879 1
235 879 1
315 879 1
404 879 1
40 880 1
128 880 1
236 880 1
316 880 1
405 880 1
41 881 1
129 881 1
237 881 1
317 881 1
406 881 1
42 882 1
130 882 1
238 882 1
318 882 1
407 882 1
43 883 1
131 883 1
239 883 1
319 883 1
408 883 1
44 884 1
132 884 1
240 884 1
320 884 1
409 884 1
45 885 1
133 885 1
211 885 1
321 885 1
410 885 1
46 886 1
134 886 1
212 886 1
322 886 1
411 886 1
47 887 1
135 887 1
213 887 1
323 887 1
412 887 1
48 888 1
136 888 1
214 888 1
324 888 1
413 888 1
49 889 1
137 889 1
215 889 1
325 889 1
414 889 1
50 890 1
138 890 1
216 890 1
326 890 1
415 890 1
51 891 1
139 891 1
217 891 1
327 891 1
416 891 1
52 892 1
140 892 1
218 892 1
328 892 1
417 892 1
53 893 1
141 893 1
219 893 1
329 893 1
418 893 1
54 894 1
142 894 1
220 894 1
330 894 1
419 894 1
55 895 1
143 895 1
221 895 1
301 895 1
420 895 1
56 896 1
144 896 1
222 896 1
302 896 1
391 896 1
57 897 1
145 897 1
223 897 1
303 897 1
392 897 1
58 898 1
146 898 1
224 898 1
304 898 1
393 898 1
59 899 1
147 899 1
225 899 1
305 899 1
394 899 1
60 900 1
148 900 1
226 900 1
306 900 1
395 900 1
61 901 1
179 901 1
257 901 1
337 901 1
426 901 1
62 902 1
180 902 1
258 902 1
338 902 1
427 902 1
63 903 1
151 903 1
259 903 1
339 903 1
428 903 1
64 904 1
152 904 1
260 904 1
340 904 1
429 904 1
65 905 1
153 905 1
261 905 1
341 905 1
430 905 1
66 906 1
154 906 1
262 906 1
342 906 1
431 906 1
67 907 1
155 907 1
263 907 1
343 907 1
432 907 1
68 908 1
156 908 1
264 908 1
344 908 1
433 908 1
69 909 1
157 909 1
265 909 1
345 909 1
434 909 1
70 910 1
158 910 1
266 910 1
346 910 1
435 910 1
71 911 1
159 911 1
267 911 1
347 911 1
436 911 1
72 912 1
160 912 1
268 912 1
348 912 1
437 912 1
73 913 1
161 913 1
269 913 1
349 913 1
438 913 1
74 914 1
162 914 1
270 914 1
350 914 1
439 914 1
75 915 1
163 915 1
241 915 1
351 915 1
440 915 1
76 916 1
164 916 1
242 916 1
352 916 1
441 916 1
77 917 1
165 917 1
243 917 1
353 917 1
442 917 1
78 918 1
166 918 1
244 918 1
354 918 1
443 918 1
79 919 1
167 919 1
245 919 1
355 919 1
444 919 1
80 920 1
168 920 1
246 920 1
356 920 1
445 920 1
81 921 1
169 921 1
247 921 1
357 921 1
446 921 1
82 922 1
170 922 1
248 922 1
358 922 1
447 922 1
83 923 1
171 923 1
249 923 1
359 923 1
448 923 1
84 924 1
172 924 1
250 924 1
360 924 1
449 924 1
85 925 1
173 925 1
251 925 1
331 925 1
450 925 1
86 926 1
174 926 1
252 926 1
332 926 1
421 926 1
87 927 1
175 927 1
253 927 1
333 927 1
422 927 1
88 928 1
176 928 1
254 928 1
334 928 1
423 928 1
89 929 1
177 929 1
255 929 1
335 929 1
424 929 1
90 930 1
178 930 1
256 930 1
336 930 1
425 930 1
1 931 1
105 931 1
200 931 1
287 931 1
378 931 1
2 932 1
106 932 1
201 932 1
288 932 1
379 932 1
3 933 1
107 933 1
202 933 1
289 933 1
380 933 1
4 934 1
108 934 1
203 934 1
290 934 1
381 934 1
5 935 1
109 935 1
204 935 1
291 935 1
382 935 1
6 936 1
110 936 1
205 936 1
292 936 1
383 936 1
7 937 1
111 937 1
206 937 1
293 937 1
384 937 1
8 938 1
112 938 1
207 938 1
294 938 1
385 938 1
9 939 1
113 939 1
208 939 1
295 939 1
386 939 1
10 940 1
114 940 1
209 940 1
296 940 1
387 940 1
11 941 1
115 941 1
210 941 1
297 941 1
388 941 1
12 942 1
116 942 1
181 942 1
298 942 1
389 942 1
13 943 1
117 943 1
182 943 1
299 943 1
390 943 1
14 944 1
118 944 1
183 944 1
300 944 1
361 944 1
15 945 1
119 945 1
184 945 1
271 945 1
362 945 1
16 946 1
120 946 1
185 946 1
272 946 1
363 946 1
17 947 1
91 947 1
186 947 1
273 947 1
364 947 1
18 948 1
92 948 1
187 948 1
274 948 1
365 948 1
19 949 1
93 949 1
188 949 1
275 949 1
366 949 1
20 950 1
94 950 1
189 950 1
276 950 1
367 950 1
21 951 1
95 951 1
190 951 1
277 951 1
368 951 1
22 952 1
96 952 1
191 952 1
278 952 1
369 952 1
23 953 1
97 953 1
192 953 1
279 953 1
370 953 1
24 954 1
98 954 1
193 954 1
280 954 1
371 954 1
25 955 1
99 955 1
194 955 1
281 955 1
372 955 1
26 956 1
100 956 1
195 956 1
282 956 1
373 956 1
27 957 1
101 957 1
196 957 1
283 957 1
374 957 1
28 958 1
102 958 1
197 958 1
284 958 1
375 958 1
29 959 1
103 959 1
198 959 1
285 959 1
376 959 1
30 960 1
104 960 1
199 960 1
286 960 1
377 960 1
31 961 1
135 961 1
230 961 1
317 961 1
408 961 1
32 962 1
136 962 1
231 962 1
318 962 1
409 962 1
33 963 1
137 963 1
232 963 1
319 963 1
410 963 1
34 964 1
138 964 1
233 964 1
320 964 1
411 964 1
35 965 1
139 965 1
234 965 1
321 965 1
412 965 1
36 966 1
140 966 1
235 966 1
322 966 1
413 966 1
37 967 1
141 967 1
236 967 1
323 967 1
414 967 1
38 968 1
142 968 1
237 968 1
324 968 1
415 968 1
39 969 1
143 969 1
238 969 1
325 969 1
416 969 1
40 970 1
144 970 1
239 970 1
326 970 1
417 970 1
41 971 1
145 971 1
240 971 1
327 971 1
418 971 1
42 972 1
146 972 1
211 972 1
328 972 1
419 972 1
43 973 1
147 973 1
212 973 1
329 973 1
420 973 1
44 974 1
148 974 1
213 974 1
330 974 1
391 974 1
45 975 1
149 975 1
214 975 1
301 975 1
392 975 1
46 976 1
150 976 1
215 976 1
302 976 1
393 976 1
47 977 1
121 977 1
216 977 1
303 977 1
394 977 1
48 978 1
122 978 1
217 978 1
304 978 1
395 978 1
49 979 1
123 979 1
218 979 1
305 979 1
396 979 1
50 980 1
124 980 1
219 980 1
306 980 1
397 980 1
51 981 1
125 981 1
220 981 1
307 981 1
398 981 1
52 982 1
126 982 1
221 982 1
308 982 1
399 982 1
53 983 1
127 983 1
222 983 1
309 983 1
400 983 1
54 984 1
128 984 1
223 984 1
310 984 1
401 984 1
55 985 1
129 985 1
224 985 1
311 985 1
402 985 1
56 986 1
130 986 1
225 986 1
312 986 1
403 986 1
57 987 1
131 987 1
226 987 1
313 987 1
404 987 1
58 988 1
132 988 1
227 988 1
314 988 1
405 988 1
59 989 1
133 989 1
228 989 1
315 989 1
406 989 1
60 990 1
134 990 1
229 990 1
316 990 1
407 990 1
61 991 1
165 991 1
260 991 1
347 991 1
438 991 1
62 992 1
166 992 1
261 992 1
348 992 1
439 992 1
63 993 1
167 993 1
262 993 1
349 993 1
440 993 1
64 994 1
168 994 1
263 994 1
350 994 1
441 994 1
65 995 1
169 995 1
264 995 1
351 995 1
442 995 1
66 996 1
170 996 1
265 996 1
352 996 1
443 996 1
67 997 1
171 997 1
266 997 1
353 997 1
444 997 1
68 998 1
172 998 1
267 998 1
354 998 1
445 998 1
69 999 1
173 999 1
268 999 1
355 999 1
446 999 1
70 1000 1
174 1000 1
269 1000 1
356 1000 1
447 1000 1
71 1001 1
175 1001 1
270 1001 1
357 1001 1
448 1001 1
72 1002 1
176 1002 1
241 1002 1
358 1002 1
449 1002 1
73 1003 1
177 1003 1
242 1003 1
359 1003 1
450 1003 1
74 1004 1
178 1004 1
243 1004 1
360 1004 1
421 1004 1
75 1005 1
179 1005 1
244 1005 1
331 1005 1
422 1005 1
76 1006 1
180 1006 1
245 1006 1
332 1006 1
423 1006 1
77 1007 1
151 1007 1
246 1007 1
333 1007 1
424 1007 1
78 1008 1
152 1008 1
247 1008 1
334 1008 1
425 1008 1
79 1009 1
153 1009 1
248 1009 1
335 1009 1
426 1009 1
80 1010 1
154 1010 1
249 1010 1
336 1010 1
427 1010 1
81 1011 1
155 1011 1
250 1011 1
337 1011 1
428 1011 1
82 1012 1
156 1012 1
251 1012 1
338 1012 1
429 1012 1
83 1013 1
157 1013 1
252 1013 1
339 1013 1
430 1013 1
84 1014 1
158 1014 1
253 1014 1
340 1014 1
431 1014 1
85 1015 1
159 1015 1
254 1015 1
341 1015 1
432 1015 1
86 1016 1
160 1016 1
255 1016 1
342 1016 1
433 1016 1
87 1017 1
161 1017 1
256 1017 1
343 1017 1
434 1017 1
88 1018 1
162 1018 1
257 1018 1
344 1018 1
435 1018 1
89 1019 1
163 1019 1
258 1019 1
345 1019 1
436 1019 1
90 1020 1
164 1020 1
259 1020 1
346 1020 1
437 1020 1
